# vtk DataFile Version 2.0
result
ASCII
DATASET UNSTRUCTURED_GRID
POINTS 1364 float
0.010000 0.000000 0.100000
0.020000 0.000000 0.100000
0.030000 0.000000 0.100000
0.040000 0.000000 0.100000
0.050000 0.000000 0.100000
0.060000 0.000000 0.100000
0.070000 0.000000 0.100000
0.080000 0.000000 0.100000
0.090000 0.000000 0.100000
0.100000 0.000000 0.100000
0.110000 0.000000 0.100000
0.120000 0.000000 0.100000
0.130000 0.000000 0.100000
0.140000 0.000000 0.100000
0.150000 0.000000 0.100000
0.160000 0.000000 0.100000
0.170000 0.000000 0.100000
0.180000 0.000000 0.100000
0.190000 0.000000 0.100000
0.200000 0.000000 0.100000
0.210000 0.000000 0.100000
0.220000 0.000000 0.100000
0.230000 0.000000 0.100000
0.240000 0.000000 0.100000
0.250000 0.000000 0.100000
0.260000 0.000000 0.100000
0.270000 0.000000 0.100000
0.280000 0.000000 0.100000
0.290000 0.000000 0.100000
0.300000 0.000000 0.100000
0.300000 0.010000 0.100000
0.300000 0.020000 0.100000
0.300000 0.030000 0.100000
0.290000 0.030000 0.100000
0.280000 0.030000 0.100000
0.270000 0.030000 0.100000
0.260000 0.030000 0.100000
0.250000 0.030000 0.100000
0.240000 0.030000 0.100000
0.230000 0.030000 0.100000
0.220000 0.030000 0.100000
0.210000 0.030000 0.100000
0.200000 0.030000 0.100000
0.190000 0.030000 0.100000
0.180000 0.030000 0.100000
0.170000 0.030000 0.100000
0.160000 0.030000 0.100000
0.150000 0.030000 0.100000
0.140000 0.030000 0.100000
0.130000 0.030000 0.100000
0.120000 0.030000 0.100000
0.110000 0.030000 0.100000
0.100000 0.030000 0.100000
0.090000 0.030000 0.100000
0.080000 0.030000 0.100000
0.070000 0.030000 0.100000
0.060000 0.030000 0.100000
0.050000 0.030000 0.100000
0.040000 0.030000 0.100000
0.030000 0.030000 0.100000
0.020000 0.030000 0.100000
0.010000 0.030000 0.100000
0.000000 0.030000 0.100000
0.000000 0.020000 0.100000
0.000000 0.010000 0.100000
0.010000 0.010000 0.100000
0.020000 0.010000 0.100000
0.030000 0.010000 0.100000
0.040000 0.010000 0.100000
0.050000 0.010000 0.100000
0.060000 0.010000 0.100000
0.070000 0.010000 0.100000
0.080000 0.010000 0.100000
0.090000 0.010000 0.100000
0.100000 0.010000 0.100000
0.110000 0.010000 0.100000
0.120000 0.010000 0.100000
0.130000 0.010000 0.100000
0.140000 0.010000 0.100000
0.150000 0.010000 0.100000
0.160000 0.010000 0.100000
0.170000 0.010000 0.100000
0.180000 0.010000 0.100000
0.190000 0.010000 0.100000
0.200000 0.010000 0.100000
0.210000 0.010000 0.100000
0.220000 0.010000 0.100000
0.230000 0.010000 0.100000
0.240000 0.010000 0.100000
0.250000 0.010000 0.100000
0.260000 0.010000 0.100000
0.270000 0.010000 0.100000
0.280000 0.010000 0.100000
0.290000 0.010000 0.100000
0.010000 0.020000 0.100000
0.020000 0.020000 0.100000
0.030000 0.020000 0.100000
0.040000 0.020000 0.100000
0.050000 0.020000 0.100000
0.060000 0.020000 0.100000
0.070000 0.020000 0.100000
0.080000 0.020000 0.100000
0.090000 0.020000 0.100000
0.100000 0.020000 0.100000
0.110000 0.020000 0.100000
0.120000 0.020000 0.100000
0.130000 0.020000 0.100000
0.140000 0.020000 0.100000
0.150000 0.020000 0.100000
0.160000 0.020000 0.100000
0.170000 0.020000 0.100000
0.180000 0.020000 0.100000
0.190000 0.020000 0.100000
0.200000 0.020000 0.100000
0.210000 0.020000 0.100000
0.220000 0.020000 0.100000
0.230000 0.020000 0.100000
0.240000 0.020000 0.100000
0.250000 0.020000 0.100000
0.260000 0.020000 0.100000
0.270000 0.020000 0.100000
0.280000 0.020000 0.100000
0.290000 0.020000 0.100000
0.300000 0.000000 0.000000
0.300000 0.000000 0.010000
0.300000 0.000000 0.020000
0.300000 0.000000 0.030000
0.300000 0.000000 0.040000
0.300000 0.000000 0.050000
0.300000 0.000000 0.060000
0.300000 0.000000 0.070000
0.300000 0.000000 0.080000
0.300000 0.000000 0.090000
0.000000 0.000000 0.090000
0.000000 0.000000 0.080000
0.000000 0.000000 0.050000
0.000000 0.000000 0.040000
0.000000 0.000000 0.030000
0.000000 0.000000 0.000000
0.010000 0.000000 0.000000
0.020000 0.000000 0.000000
0.030000 0.000000 0.000000
0.040000 0.000000 0.000000
0.050000 0.000000 0.000000
0.060000 0.000000 0.000000
0.070000 0.000000 0.000000
0.080000 0.000000 0.000000
0.090000 0.000000 0.000000
0.100000 0.000000 0.000000
0.110000 0.000000 0.000000
0.120000 0.000000 0.000000
0.130000 0.000000 0.000000
0.140000 0.000000 0.000000
0.150000 0.000000 0.000000
0.160000 0.000000 0.000000
0.170000 0.000000 0.000000
0.180000 0.000000 0.000000
0.190000 0.000000 0.000000
0.200000 0.000000 0.000000
0.210000 0.000000 0.000000
0.220000 0.000000 0.000000
0.230000 0.000000 0.000000
0.240000 0.000000 0.000000
0.250000 0.000000 0.000000
0.260000 0.000000 0.000000
0.270000 0.000000 0.000000
0.280000 0.000000 0.000000
0.290000 0.000000 0.000000
0.290000 0.000000 0.010000
0.290000 0.000000 0.020000
0.290000 0.000000 0.030000
0.290000 0.000000 0.040000
0.290000 0.000000 0.050000
0.290000 0.000000 0.060000
0.290000 0.000000 0.070000
0.290000 0.000000 0.080000
0.290000 0.000000 0.090000
0.280000 0.000000 0.010000
0.280000 0.000000 0.020000
0.280000 0.000000 0.030000
0.280000 0.000000 0.040000
0.280000 0.000000 0.050000
0.280000 0.000000 0.060000
0.280000 0.000000 0.070000
0.280000 0.000000 0.080000
0.280000 0.000000 0.090000
0.270000 0.000000 0.010000
0.270000 0.000000 0.020000
0.270000 0.000000 0.030000
0.270000 0.000000 0.040000
0.270000 0.000000 0.050000
0.270000 0.000000 0.060000
0.270000 0.000000 0.070000
0.270000 0.000000 0.080000
0.270000 0.000000 0.090000
0.260000 0.000000 0.010000
0.260000 0.000000 0.020000
0.260000 0.000000 0.030000
0.260000 0.000000 0.040000
0.260000 0.000000 0.050000
0.260000 0.000000 0.060000
0.260000 0.000000 0.070000
0.260000 0.000000 0.080000
0.260000 0.000000 0.090000
0.250000 0.000000 0.010000
0.250000 0.000000 0.020000
0.250000 0.000000 0.030000
0.250000 0.000000 0.040000
0.250000 0.000000 0.050000
0.250000 0.000000 0.060000
0.250000 0.000000 0.070000
0.250000 0.000000 0.080000
0.250000 0.000000 0.090000
0.240000 0.000000 0.010000
0.240000 0.000000 0.020000
0.240000 0.000000 0.030000
0.240000 0.000000 0.040000
0.240000 0.000000 0.050000
0.240000 0.000000 0.060000
0.240000 0.000000 0.070000
0.240000 0.000000 0.080000
0.240000 0.000000 0.090000
0.230000 0.000000 0.010000
0.230000 0.000000 0.020000
0.230000 0.000000 0.030000
0.230000 0.000000 0.040000
0.230000 0.000000 0.050000
0.230000 0.000000 0.060000
0.230000 0.000000 0.070000
0.230000 0.000000 0.080000
0.230000 0.000000 0.090000
0.220000 0.000000 0.010000
0.220000 0.000000 0.020000
0.220000 0.000000 0.030000
0.220000 0.000000 0.040000
0.220000 0.000000 0.050000
0.220000 0.000000 0.060000
0.220000 0.000000 0.070000
0.220000 0.000000 0.080000
0.220000 0.000000 0.090000
0.210000 0.000000 0.010000
0.210000 0.000000 0.020000
0.210000 0.000000 0.030000
0.210000 0.000000 0.040000
0.210000 0.000000 0.050000
0.210000 0.000000 0.060000
0.210000 0.000000 0.070000
0.210000 0.000000 0.080000
0.210000 0.000000 0.090000
0.200000 0.000000 0.010000
0.200000 0.000000 0.020000
0.200000 0.000000 0.030000
0.200000 0.000000 0.040000
0.200000 0.000000 0.050000
0.200000 0.000000 0.060000
0.200000 0.000000 0.070000
0.200000 0.000000 0.080000
0.200000 0.000000 0.090000
0.190000 0.000000 0.010000
0.190000 0.000000 0.020000
0.190000 0.000000 0.030000
0.190000 0.000000 0.040000
0.190000 0.000000 0.050000
0.190000 0.000000 0.060000
0.190000 0.000000 0.070000
0.190000 0.000000 0.080000
0.190000 0.000000 0.090000
0.180000 0.000000 0.010000
0.180000 0.000000 0.020000
0.180000 0.000000 0.030000
0.180000 0.000000 0.040000
0.180000 0.000000 0.050000
0.180000 0.000000 0.060000
0.180000 0.000000 0.070000
0.180000 0.000000 0.080000
0.180000 0.000000 0.090000
0.170000 0.000000 0.010000
0.170000 0.000000 0.020000
0.170000 0.000000 0.030000
0.170000 0.000000 0.040000
0.170000 0.000000 0.050000
0.170000 0.000000 0.060000
0.170000 0.000000 0.070000
0.170000 0.000000 0.080000
0.170000 0.000000 0.090000
0.160000 0.000000 0.010000
0.160000 0.000000 0.020000
0.160000 0.000000 0.030000
0.160000 0.000000 0.040000
0.160000 0.000000 0.050000
0.160000 0.000000 0.060000
0.160000 0.000000 0.070000
0.160000 0.000000 0.080000
0.160000 0.000000 0.090000
0.150000 0.000000 0.010000
0.150000 0.000000 0.020000
0.150000 0.000000 0.030000
0.150000 0.000000 0.040000
0.150000 0.000000 0.050000
0.150000 0.000000 0.060000
0.150000 0.000000 0.070000
0.150000 0.000000 0.080000
0.150000 0.000000 0.090000
0.140000 0.000000 0.010000
0.140000 0.000000 0.020000
0.140000 0.000000 0.030000
0.140000 0.000000 0.040000
0.140000 0.000000 0.050000
0.140000 0.000000 0.060000
0.140000 0.000000 0.070000
0.140000 0.000000 0.080000
0.140000 0.000000 0.090000
0.130000 0.000000 0.010000
0.130000 0.000000 0.020000
0.130000 0.000000 0.030000
0.130000 0.000000 0.040000
0.130000 0.000000 0.050000
0.130000 0.000000 0.060000
0.130000 0.000000 0.070000
0.130000 0.000000 0.080000
0.130000 0.000000 0.090000
0.120000 0.000000 0.010000
0.120000 0.000000 0.020000
0.120000 0.000000 0.030000
0.120000 0.000000 0.040000
0.120000 0.000000 0.050000
0.120000 0.000000 0.060000
0.120000 0.000000 0.070000
0.120000 0.000000 0.080000
0.120000 0.000000 0.090000
0.110000 0.000000 0.010000
0.110000 0.000000 0.020000
0.110000 0.000000 0.030000
0.110000 0.000000 0.040000
0.110000 0.000000 0.050000
0.110000 0.000000 0.060000
0.110000 0.000000 0.070000
0.110000 0.000000 0.080000
0.110000 0.000000 0.090000
0.100000 0.000000 0.010000
0.100000 0.000000 0.020000
0.100000 0.000000 0.030000
0.100000 0.000000 0.040000
0.100000 0.000000 0.050000
0.100000 0.000000 0.060000
0.100000 0.000000 0.070000
0.100000 0.000000 0.080000
0.100000 0.000000 0.090000
0.090000 0.000000 0.010000
0.090000 0.000000 0.020000
0.090000 0.000000 0.030000
0.090000 0.000000 0.040000
0.090000 0.000000 0.050000
0.090000 0.000000 0.060000
0.090000 0.000000 0.070000
0.090000 0.000000 0.080000
0.090000 0.000000 0.090000
0.080000 0.000000 0.010000
0.080000 0.000000 0.020000
0.080000 0.000000 0.030000
0.080000 0.000000 0.040000
0.080000 0.000000 0.050000
0.080000 0.000000 0.060000
0.080000 0.000000 0.070000
0.080000 0.000000 0.080000
0.080000 0.000000 0.090000
0.070000 0.000000 0.010000
0.070000 0.000000 0.020000
0.070000 0.000000 0.030000
0.070000 0.000000 0.040000
0.070000 0.000000 0.050000
0.070000 0.000000 0.060000
0.070000 0.000000 0.070000
0.070000 0.000000 0.080000
0.070000 0.000000 0.090000
0.060000 0.000000 0.010000
0.060000 0.000000 0.020000
0.060000 0.000000 0.030000
0.060000 0.000000 0.040000
0.060000 0.000000 0.050000
0.060000 0.000000 0.060000
0.060000 0.000000 0.070000
0.060000 0.000000 0.080000
0.060000 0.000000 0.090000
0.050000 0.000000 0.010000
0.050000 0.000000 0.020000
0.050000 0.000000 0.030000
0.050000 0.000000 0.040000
0.050000 0.000000 0.050000
0.050000 0.000000 0.060000
0.050000 0.000000 0.070000
0.050000 0.000000 0.080000
0.050000 0.000000 0.090000
0.040000 0.000000 0.010000
0.040000 0.000000 0.020000
0.040000 0.000000 0.030000
0.040000 0.000000 0.040000
0.040000 0.000000 0.050000
0.040000 0.000000 0.060000
0.040000 0.000000 0.070000
0.040000 0.000000 0.080000
0.040000 0.000000 0.090000
0.030000 0.000000 0.010000
0.030000 0.000000 0.020000
0.030000 0.000000 0.030000
0.030000 0.000000 0.040000
0.030000 0.000000 0.050000
0.030000 0.000000 0.060000
0.030000 0.000000 0.070000
0.030000 0.000000 0.080000
0.030000 0.000000 0.090000
0.020000 0.000000 0.010000
0.020000 0.000000 0.020000
0.020000 0.000000 0.030000
0.020000 0.000000 0.040000
0.020000 0.000000 0.050000
0.020000 0.000000 0.060000
0.020000 0.000000 0.070000
0.020000 0.000000 0.080000
0.020000 0.000000 0.090000
0.010000 0.000000 0.010000
0.010000 0.000000 0.020000
0.010000 0.000000 0.030000
0.010000 0.000000 0.040000
0.010000 0.000000 0.050000
0.010000 0.000000 0.060000
0.010000 0.000000 0.070000
0.010000 0.000000 0.080000
0.010000 0.000000 0.090000
0.000000 0.030000 0.000000
0.000000 0.030000 0.060000
0.000000 0.030000 0.090000
0.300000 0.030000 0.090000
0.300000 0.030000 0.080000
0.300000 0.030000 0.070000
0.300000 0.030000 0.060000
0.300000 0.030000 0.050000
0.300000 0.030000 0.040000
0.300000 0.030000 0.030000
0.300000 0.030000 0.020000
0.300000 0.030000 0.010000
0.300000 0.030000 0.000000
0.290000 0.030000 0.000000
0.280000 0.030000 0.000000
0.270000 0.030000 0.000000
0.260000 0.030000 0.000000
0.250000 0.030000 0.000000
0.240000 0.030000 0.000000
0.230000 0.030000 0.000000
0.220000 0.030000 0.000000
0.210000 0.030000 0.000000
0.200000 0.030000 0.000000
0.190000 0.030000 0.000000
0.180000 0.030000 0.000000
0.170000 0.030000 0.000000
0.160000 0.030000 0.000000
0.150000 0.030000 0.000000
0.140000 0.030000 0.000000
0.130000 0.030000 0.000000
0.120000 0.030000 0.000000
0.110000 0.030000 0.000000
0.100000 0.030000 0.000000
0.090000 0.030000 0.000000
0.080000 0.030000 0.000000
0.070000 0.030000 0.000000
0.060000 0.030000 0.000000
0.050000 0.030000 0.000000
0.040000 0.030000 0.000000
0.030000 0.030000 0.000000
0.020000 0.030000 0.000000
0.010000 0.030000 0.000000
0.010000 0.030000 0.010000
0.010000 0.030000 0.020000
0.010000 0.030000 0.030000
0.010000 0.030000 0.040000
0.010000 0.030000 0.050000
0.010000 0.030000 0.060000
0.010000 0.030000 0.070000
0.010000 0.030000 0.080000
0.010000 0.030000 0.090000
0.020000 0.030000 0.010000
0.020000 0.030000 0.020000
0.020000 0.030000 0.030000
0.020000 0.030000 0.040000
0.020000 0.030000 0.050000
0.020000 0.030000 0.060000
0.020000 0.030000 0.070000
0.020000 0.030000 0.080000
0.020000 0.030000 0.090000
0.030000 0.030000 0.010000
0.030000 0.030000 0.020000
0.030000 0.030000 0.030000
0.030000 0.030000 0.040000
0.030000 0.030000 0.050000
0.030000 0.030000 0.060000
0.030000 0.030000 0.070000
0.030000 0.030000 0.080000
0.030000 0.030000 0.090000
0.040000 0.030000 0.010000
0.040000 0.030000 0.020000
0.040000 0.030000 0.030000
0.040000 0.030000 0.040000
0.040000 0.030000 0.050000
0.040000 0.030000 0.060000
0.040000 0.030000 0.070000
0.040000 0.030000 0.080000
0.040000 0.030000 0.090000
0.050000 0.030000 0.010000
0.050000 0.030000 0.020000
0.050000 0.030000 0.030000
0.050000 0.030000 0.040000
0.050000 0.030000 0.050000
0.050000 0.030000 0.060000
0.050000 0.030000 0.070000
0.050000 0.030000 0.080000
0.050000 0.030000 0.090000
0.060000 0.030000 0.010000
0.060000 0.030000 0.020000
0.060000 0.030000 0.030000
0.060000 0.030000 0.040000
0.060000 0.030000 0.050000
0.060000 0.030000 0.060000
0.060000 0.030000 0.070000
0.060000 0.030000 0.080000
0.060000 0.030000 0.090000
0.070000 0.030000 0.010000
0.070000 0.030000 0.020000
0.070000 0.030000 0.030000
0.070000 0.030000 0.040000
0.070000 0.030000 0.050000
0.070000 0.030000 0.060000
0.070000 0.030000 0.070000
0.070000 0.030000 0.080000
0.070000 0.030000 0.090000
0.080000 0.030000 0.010000
0.080000 0.030000 0.020000
0.080000 0.030000 0.030000
0.080000 0.030000 0.040000
0.080000 0.030000 0.050000
0.080000 0.030000 0.060000
0.080000 0.030000 0.070000
0.080000 0.030000 0.080000
0.080000 0.030000 0.090000
0.090000 0.030000 0.010000
0.090000 0.030000 0.020000
0.090000 0.030000 0.030000
0.090000 0.030000 0.040000
0.090000 0.030000 0.050000
0.090000 0.030000 0.060000
0.090000 0.030000 0.070000
0.090000 0.030000 0.080000
0.090000 0.030000 0.090000
0.100000 0.030000 0.010000
0.100000 0.030000 0.020000
0.100000 0.030000 0.030000
0.100000 0.030000 0.040000
0.100000 0.030000 0.050000
0.100000 0.030000 0.060000
0.100000 0.030000 0.070000
0.100000 0.030000 0.080000
0.100000 0.030000 0.090000
0.110000 0.030000 0.010000
0.110000 0.030000 0.020000
0.110000 0.030000 0.030000
0.110000 0.030000 0.040000
0.110000 0.030000 0.050000
0.110000 0.030000 0.060000
0.110000 0.030000 0.070000
0.110000 0.030000 0.080000
0.110000 0.030000 0.090000
0.120000 0.030000 0.010000
0.120000 0.030000 0.020000
0.120000 0.030000 0.030000
0.120000 0.030000 0.040000
0.120000 0.030000 0.050000
0.120000 0.030000 0.060000
0.120000 0.030000 0.070000
0.120000 0.030000 0.080000
0.120000 0.030000 0.090000
0.130000 0.030000 0.010000
0.130000 0.030000 0.020000
0.130000 0.030000 0.030000
0.130000 0.030000 0.040000
0.130000 0.030000 0.050000
0.130000 0.030000 0.060000
0.130000 0.030000 0.070000
0.130000 0.030000 0.080000
0.130000 0.030000 0.090000
0.140000 0.030000 0.010000
0.140000 0.030000 0.020000
0.140000 0.030000 0.030000
0.140000 0.030000 0.040000
0.140000 0.030000 0.050000
0.140000 0.030000 0.060000
0.140000 0.030000 0.070000
0.140000 0.030000 0.080000
0.140000 0.030000 0.090000
0.150000 0.030000 0.010000
0.150000 0.030000 0.020000
0.150000 0.030000 0.030000
0.150000 0.030000 0.040000
0.150000 0.030000 0.050000
0.150000 0.030000 0.060000
0.150000 0.030000 0.070000
0.150000 0.030000 0.080000
0.150000 0.030000 0.090000
0.160000 0.030000 0.010000
0.160000 0.030000 0.020000
0.160000 0.030000 0.030000
0.160000 0.030000 0.040000
0.160000 0.030000 0.050000
0.160000 0.030000 0.060000
0.160000 0.030000 0.070000
0.160000 0.030000 0.080000
0.160000 0.030000 0.090000
0.170000 0.030000 0.010000
0.170000 0.030000 0.020000
0.170000 0.030000 0.030000
0.170000 0.030000 0.040000
0.170000 0.030000 0.050000
0.170000 0.030000 0.060000
0.170000 0.030000 0.070000
0.170000 0.030000 0.080000
0.170000 0.030000 0.090000
0.180000 0.030000 0.010000
0.180000 0.030000 0.020000
0.180000 0.030000 0.030000
0.180000 0.030000 0.040000
0.180000 0.030000 0.050000
0.180000 0.030000 0.060000
0.180000 0.030000 0.070000
0.180000 0.030000 0.080000
0.180000 0.030000 0.090000
0.190000 0.030000 0.010000
0.190000 0.030000 0.020000
0.190000 0.030000 0.030000
0.190000 0.030000 0.040000
0.190000 0.030000 0.050000
0.190000 0.030000 0.060000
0.190000 0.030000 0.070000
0.190000 0.030000 0.080000
0.190000 0.030000 0.090000
0.200000 0.030000 0.010000
0.200000 0.030000 0.020000
0.200000 0.030000 0.030000
0.200000 0.030000 0.040000
0.200000 0.030000 0.050000
0.200000 0.030000 0.060000
0.200000 0.030000 0.070000
0.200000 0.030000 0.080000
0.200000 0.030000 0.090000
0.210000 0.030000 0.010000
0.210000 0.030000 0.020000
0.210000 0.030000 0.030000
0.210000 0.030000 0.040000
0.210000 0.030000 0.050000
0.210000 0.030000 0.060000
0.210000 0.030000 0.070000
0.210000 0.030000 0.080000
0.210000 0.030000 0.090000
0.220000 0.030000 0.010000
0.220000 0.030000 0.020000
0.220000 0.030000 0.030000
0.220000 0.030000 0.040000
0.220000 0.030000 0.050000
0.220000 0.030000 0.060000
0.220000 0.030000 0.070000
0.220000 0.030000 0.080000
0.220000 0.030000 0.090000
0.230000 0.030000 0.010000
0.230000 0.030000 0.020000
0.230000 0.030000 0.030000
0.230000 0.030000 0.040000
0.230000 0.030000 0.050000
0.230000 0.030000 0.060000
0.230000 0.030000 0.070000
0.230000 0.030000 0.080000
0.230000 0.030000 0.090000
0.240000 0.030000 0.010000
0.240000 0.030000 0.020000
0.240000 0.030000 0.030000
0.240000 0.030000 0.040000
0.240000 0.030000 0.050000
0.240000 0.030000 0.060000
0.240000 0.030000 0.070000
0.240000 0.030000 0.080000
0.240000 0.030000 0.090000
0.250000 0.030000 0.010000
0.250000 0.030000 0.020000
0.250000 0.030000 0.030000
0.250000 0.030000 0.040000
0.250000 0.030000 0.050000
0.250000 0.030000 0.060000
0.250000 0.030000 0.070000
0.250000 0.030000 0.080000
0.250000 0.030000 0.090000
0.260000 0.030000 0.010000
0.260000 0.030000 0.020000
0.260000 0.030000 0.030000
0.260000 0.030000 0.040000
0.260000 0.030000 0.050000
0.260000 0.030000 0.060000
0.260000 0.030000 0.070000
0.260000 0.030000 0.080000
0.260000 0.030000 0.090000
0.270000 0.030000 0.010000
0.270000 0.030000 0.020000
0.270000 0.030000 0.030000
0.270000 0.030000 0.040000
0.270000 0.030000 0.050000
0.270000 0.030000 0.060000
0.270000 0.030000 0.070000
0.270000 0.030000 0.080000
0.270000 0.030000 0.090000
0.280000 0.030000 0.010000
0.280000 0.030000 0.020000
0.280000 0.030000 0.030000
0.280000 0.030000 0.040000
0.280000 0.030000 0.050000
0.280000 0.030000 0.060000
0.280000 0.030000 0.070000
0.280000 0.030000 0.080000
0.280000 0.030000 0.090000
0.290000 0.030000 0.010000
0.290000 0.030000 0.020000
0.290000 0.030000 0.030000
0.290000 0.030000 0.040000
0.290000 0.030000 0.050000
0.290000 0.030000 0.060000
0.290000 0.030000 0.070000
0.290000 0.030000 0.080000
0.290000 0.030000 0.090000
0.300000 0.020000 0.000000
0.300000 0.010000 0.000000
0.290000 0.020000 0.000000
0.290000 0.010000 0.000000
0.280000 0.020000 0.000000
0.280000 0.010000 0.000000
0.270000 0.020000 0.000000
0.270000 0.010000 0.000000
0.260000 0.020000 0.000000
0.260000 0.010000 0.000000
0.250000 0.020000 0.000000
0.250000 0.010000 0.000000
0.240000 0.020000 0.000000
0.240000 0.010000 0.000000
0.230000 0.020000 0.000000
0.230000 0.010000 0.000000
0.220000 0.020000 0.000000
0.220000 0.010000 0.000000
0.210000 0.020000 0.000000
0.210000 0.010000 0.000000
0.200000 0.020000 0.000000
0.200000 0.010000 0.000000
0.190000 0.020000 0.000000
0.190000 0.010000 0.000000
0.180000 0.020000 0.000000
0.180000 0.010000 0.000000
0.170000 0.020000 0.000000
0.170000 0.010000 0.000000
0.160000 0.020000 0.000000
0.160000 0.010000 0.000000
0.150000 0.020000 0.000000
0.150000 0.010000 0.000000
0.140000 0.020000 0.000000
0.140000 0.010000 0.000000
0.130000 0.020000 0.000000
0.130000 0.010000 0.000000
0.120000 0.020000 0.000000
0.120000 0.010000 0.000000
0.110000 0.020000 0.000000
0.110000 0.010000 0.000000
0.100000 0.020000 0.000000
0.100000 0.010000 0.000000
0.090000 0.020000 0.000000
0.090000 0.010000 0.000000
0.080000 0.020000 0.000000
0.080000 0.010000 0.000000
0.070000 0.020000 0.000000
0.070000 0.010000 0.000000
0.060000 0.020000 0.000000
0.060000 0.010000 0.000000
0.050000 0.020000 0.000000
0.050000 0.010000 0.000000
0.040000 0.020000 0.000000
0.040000 0.010000 0.000000
0.030000 0.020000 0.000000
0.030000 0.010000 0.000000
0.020000 0.020000 0.000000
0.020000 0.010000 0.000000
0.010000 0.020000 0.000000
0.010000 0.010000 0.000000
0.300000 0.010000 0.010000
0.300000 0.020000 0.010000
0.300000 0.010000 0.020000
0.300000 0.020000 0.020000
0.300000 0.010000 0.030000
0.300000 0.020000 0.030000
0.300000 0.010000 0.040000
0.300000 0.020000 0.040000
0.300000 0.010000 0.050000
0.300000 0.020000 0.050000
0.300000 0.010000 0.060000
0.300000 0.020000 0.060000
0.300000 0.010000 0.070000
0.300000 0.020000 0.070000
0.300000 0.010000 0.080000
0.300000 0.020000 0.080000
0.300000 0.010000 0.090000
0.300000 0.020000 0.090000
0.000000 0.010000 0.000000
0.000000 0.020000 0.000000
0.000000 0.030000 0.010000
0.000000 0.030000 0.020000
0.000000 0.030000 0.030000
0.000000 0.030000 0.040000
0.000000 0.030000 0.050000
0.000000 0.030000 0.070000
0.000000 0.030000 0.080000
0.000000 0.000000 0.100000
0.000000 0.000000 0.070000
0.000000 0.000000 0.060000
0.000000 0.000000 0.020000
0.000000 0.000000 0.010000
0.000000 0.010000 0.010000
0.000000 0.020000 0.010000
0.000000 0.010000 0.020000
0.000000 0.020000 0.020000
0.000000 0.010000 0.030000
0.000000 0.020000 0.030000
0.000000 0.010000 0.040000
0.000000 0.020000 0.040000
0.000000 0.010000 0.050000
0.000000 0.020000 0.050000
0.000000 0.010000 0.060000
0.000000 0.020000 0.060000
0.000000 0.010000 0.070000
0.000000 0.020000 0.070000
0.000000 0.010000 0.080000
0.000000 0.020000 0.080000
0.000000 0.010000 0.090000
0.000000 0.020000 0.090000
0.010000 0.010000 0.010000
0.010000 0.020000 0.010000
0.010000 0.010000 0.020000
0.010000 0.020000 0.020000
0.010000 0.010000 0.030000
0.010000 0.020000 0.030000
0.010000 0.010000 0.040000
0.010000 0.020000 0.040000
0.010000 0.010000 0.050000
0.010000 0.020000 0.050000
0.010000 0.010000 0.060000
0.010000 0.020000 0.060000
0.010000 0.010000 0.070000
0.010000 0.020000 0.070000
0.010000 0.010000 0.080000
0.010000 0.020000 0.080000
0.010000 0.010000 0.090000
0.010000 0.020000 0.090000
0.020000 0.010000 0.010000
0.020000 0.020000 0.010000
0.020000 0.010000 0.020000
0.020000 0.020000 0.020000
0.020000 0.010000 0.030000
0.020000 0.020000 0.030000
0.020000 0.010000 0.040000
0.020000 0.020000 0.040000
0.020000 0.010000 0.050000
0.020000 0.020000 0.050000
0.020000 0.010000 0.060000
0.020000 0.020000 0.060000
0.020000 0.010000 0.070000
0.020000 0.020000 0.070000
0.020000 0.010000 0.080000
0.020000 0.020000 0.080000
0.020000 0.010000 0.090000
0.020000 0.020000 0.090000
0.030000 0.010000 0.010000
0.030000 0.020000 0.010000
0.030000 0.010000 0.020000
0.030000 0.020000 0.020000
0.030000 0.010000 0.030000
0.030000 0.020000 0.030000
0.030000 0.010000 0.040000
0.030000 0.020000 0.040000
0.030000 0.010000 0.050000
0.030000 0.020000 0.050000
0.030000 0.010000 0.060000
0.030000 0.020000 0.060000
0.030000 0.010000 0.070000
0.030000 0.020000 0.070000
0.030000 0.010000 0.080000
0.030000 0.020000 0.080000
0.030000 0.010000 0.090000
0.030000 0.020000 0.090000
0.040000 0.010000 0.010000
0.040000 0.020000 0.010000
0.040000 0.010000 0.020000
0.040000 0.020000 0.020000
0.040000 0.010000 0.030000
0.040000 0.020000 0.030000
0.040000 0.010000 0.040000
0.040000 0.020000 0.040000
0.040000 0.010000 0.050000
0.040000 0.020000 0.050000
0.040000 0.010000 0.060000
0.040000 0.020000 0.060000
0.040000 0.010000 0.070000
0.040000 0.020000 0.070000
0.040000 0.010000 0.080000
0.040000 0.020000 0.080000
0.040000 0.010000 0.090000
0.040000 0.020000 0.090000
0.050000 0.010000 0.010000
0.050000 0.020000 0.010000
0.050000 0.010000 0.020000
0.050000 0.020000 0.020000
0.050000 0.010000 0.030000
0.050000 0.020000 0.030000
0.050000 0.010000 0.040000
0.050000 0.020000 0.040000
0.050000 0.010000 0.050000
0.050000 0.020000 0.050000
0.050000 0.010000 0.060000
0.050000 0.020000 0.060000
0.050000 0.010000 0.070000
0.050000 0.020000 0.070000
0.050000 0.010000 0.080000
0.050000 0.020000 0.080000
0.050000 0.010000 0.090000
0.050000 0.020000 0.090000
0.060000 0.010000 0.010000
0.060000 0.020000 0.010000
0.060000 0.010000 0.020000
0.060000 0.020000 0.020000
0.060000 0.010000 0.030000
0.060000 0.020000 0.030000
0.060000 0.010000 0.040000
0.060000 0.020000 0.040000
0.060000 0.010000 0.050000
0.060000 0.020000 0.050000
0.060000 0.010000 0.060000
0.060000 0.020000 0.060000
0.060000 0.010000 0.070000
0.060000 0.020000 0.070000
0.060000 0.010000 0.080000
0.060000 0.020000 0.080000
0.060000 0.010000 0.090000
0.060000 0.020000 0.090000
0.070000 0.010000 0.010000
0.070000 0.020000 0.010000
0.070000 0.010000 0.020000
0.070000 0.020000 0.020000
0.070000 0.010000 0.030000
0.070000 0.020000 0.030000
0.070000 0.010000 0.040000
0.070000 0.020000 0.040000
0.070000 0.010000 0.050000
0.070000 0.020000 0.050000
0.070000 0.010000 0.060000
0.070000 0.020000 0.060000
0.070000 0.010000 0.070000
0.070000 0.020000 0.070000
0.070000 0.010000 0.080000
0.070000 0.020000 0.080000
0.070000 0.010000 0.090000
0.070000 0.020000 0.090000
0.080000 0.010000 0.010000
0.080000 0.020000 0.010000
0.080000 0.010000 0.020000
0.080000 0.020000 0.020000
0.080000 0.010000 0.030000
0.080000 0.020000 0.030000
0.080000 0.010000 0.040000
0.080000 0.020000 0.040000
0.080000 0.010000 0.050000
0.080000 0.020000 0.050000
0.080000 0.010000 0.060000
0.080000 0.020000 0.060000
0.080000 0.010000 0.070000
0.080000 0.020000 0.070000
0.080000 0.010000 0.080000
0.080000 0.020000 0.080000
0.080000 0.010000 0.090000
0.080000 0.020000 0.090000
0.090000 0.010000 0.010000
0.090000 0.020000 0.010000
0.090000 0.010000 0.020000
0.090000 0.020000 0.020000
0.090000 0.010000 0.030000
0.090000 0.020000 0.030000
0.090000 0.010000 0.040000
0.090000 0.020000 0.040000
0.090000 0.010000 0.050000
0.090000 0.020000 0.050000
0.090000 0.010000 0.060000
0.090000 0.020000 0.060000
0.090000 0.010000 0.070000
0.090000 0.020000 0.070000
0.090000 0.010000 0.080000
0.090000 0.020000 0.080000
0.090000 0.010000 0.090000
0.090000 0.020000 0.090000
0.100000 0.010000 0.010000
0.100000 0.020000 0.010000
0.100000 0.010000 0.020000
0.100000 0.020000 0.020000
0.100000 0.010000 0.030000
0.100000 0.020000 0.030000
0.100000 0.010000 0.040000
0.100000 0.020000 0.040000
0.100000 0.010000 0.050000
0.100000 0.020000 0.050000
0.100000 0.010000 0.060000
0.100000 0.020000 0.060000
0.100000 0.010000 0.070000
0.100000 0.020000 0.070000
0.100000 0.010000 0.080000
0.100000 0.020000 0.080000
0.100000 0.010000 0.090000
0.100000 0.020000 0.090000
0.110000 0.010000 0.010000
0.110000 0.020000 0.010000
0.110000 0.010000 0.020000
0.110000 0.020000 0.020000
0.110000 0.010000 0.030000
0.110000 0.020000 0.030000
0.110000 0.010000 0.040000
0.110000 0.020000 0.040000
0.110000 0.010000 0.050000
0.110000 0.020000 0.050000
0.110000 0.010000 0.060000
0.110000 0.020000 0.060000
0.110000 0.010000 0.070000
0.110000 0.020000 0.070000
0.110000 0.010000 0.080000
0.110000 0.020000 0.080000
0.110000 0.010000 0.090000
0.110000 0.020000 0.090000
0.120000 0.010000 0.010000
0.120000 0.020000 0.010000
0.120000 0.010000 0.020000
0.120000 0.020000 0.020000
0.120000 0.010000 0.030000
0.120000 0.020000 0.030000
0.120000 0.010000 0.040000
0.120000 0.020000 0.040000
0.120000 0.010000 0.050000
0.120000 0.020000 0.050000
0.120000 0.010000 0.060000
0.120000 0.020000 0.060000
0.120000 0.010000 0.070000
0.120000 0.020000 0.070000
0.120000 0.010000 0.080000
0.120000 0.020000 0.080000
0.120000 0.010000 0.090000
0.120000 0.020000 0.090000
0.130000 0.010000 0.010000
0.130000 0.020000 0.010000
0.130000 0.010000 0.020000
0.130000 0.020000 0.020000
0.130000 0.010000 0.030000
0.130000 0.020000 0.030000
0.130000 0.010000 0.040000
0.130000 0.020000 0.040000
0.130000 0.010000 0.050000
0.130000 0.020000 0.050000
0.130000 0.010000 0.060000
0.130000 0.020000 0.060000
0.130000 0.010000 0.070000
0.130000 0.020000 0.070000
0.130000 0.010000 0.080000
0.130000 0.020000 0.080000
0.130000 0.010000 0.090000
0.130000 0.020000 0.090000
0.140000 0.010000 0.010000
0.140000 0.020000 0.010000
0.140000 0.010000 0.020000
0.140000 0.020000 0.020000
0.140000 0.010000 0.030000
0.140000 0.020000 0.030000
0.140000 0.010000 0.040000
0.140000 0.020000 0.040000
0.140000 0.010000 0.050000
0.140000 0.020000 0.050000
0.140000 0.010000 0.060000
0.140000 0.020000 0.060000
0.140000 0.010000 0.070000
0.140000 0.020000 0.070000
0.140000 0.010000 0.080000
0.140000 0.020000 0.080000
0.140000 0.010000 0.090000
0.140000 0.020000 0.090000
0.150000 0.010000 0.010000
0.150000 0.020000 0.010000
0.150000 0.010000 0.020000
0.150000 0.020000 0.020000
0.150000 0.010000 0.030000
0.150000 0.020000 0.030000
0.150000 0.010000 0.040000
0.150000 0.020000 0.040000
0.150000 0.010000 0.050000
0.150000 0.020000 0.050000
0.150000 0.010000 0.060000
0.150000 0.020000 0.060000
0.150000 0.010000 0.070000
0.150000 0.020000 0.070000
0.150000 0.010000 0.080000
0.150000 0.020000 0.080000
0.150000 0.010000 0.090000
0.150000 0.020000 0.090000
0.160000 0.010000 0.010000
0.160000 0.020000 0.010000
0.160000 0.010000 0.020000
0.160000 0.020000 0.020000
0.160000 0.010000 0.030000
0.160000 0.020000 0.030000
0.160000 0.010000 0.040000
0.160000 0.020000 0.040000
0.160000 0.010000 0.050000
0.160000 0.020000 0.050000
0.160000 0.010000 0.060000
0.160000 0.020000 0.060000
0.160000 0.010000 0.070000
0.160000 0.020000 0.070000
0.160000 0.010000 0.080000
0.160000 0.020000 0.080000
0.160000 0.010000 0.090000
0.160000 0.020000 0.090000
0.170000 0.010000 0.010000
0.170000 0.020000 0.010000
0.170000 0.010000 0.020000
0.170000 0.020000 0.020000
0.170000 0.010000 0.030000
0.170000 0.020000 0.030000
0.170000 0.010000 0.040000
0.170000 0.020000 0.040000
0.170000 0.010000 0.050000
0.170000 0.020000 0.050000
0.170000 0.010000 0.060000
0.170000 0.020000 0.060000
0.170000 0.010000 0.070000
0.170000 0.020000 0.070000
0.170000 0.010000 0.080000
0.170000 0.020000 0.080000
0.170000 0.010000 0.090000
0.170000 0.020000 0.090000
0.180000 0.010000 0.010000
0.180000 0.020000 0.010000
0.180000 0.010000 0.020000
0.180000 0.020000 0.020000
0.180000 0.010000 0.030000
0.180000 0.020000 0.030000
0.180000 0.010000 0.040000
0.180000 0.020000 0.040000
0.180000 0.010000 0.050000
0.180000 0.020000 0.050000
0.180000 0.010000 0.060000
0.180000 0.020000 0.060000
0.180000 0.010000 0.070000
0.180000 0.020000 0.070000
0.180000 0.010000 0.080000
0.180000 0.020000 0.080000
0.180000 0.010000 0.090000
0.180000 0.020000 0.090000
0.190000 0.010000 0.010000
0.190000 0.020000 0.010000
0.190000 0.010000 0.020000
0.190000 0.020000 0.020000
0.190000 0.010000 0.030000
0.190000 0.020000 0.030000
0.190000 0.010000 0.040000
0.190000 0.020000 0.040000
0.190000 0.010000 0.050000
0.190000 0.020000 0.050000
0.190000 0.010000 0.060000
0.190000 0.020000 0.060000
0.190000 0.010000 0.070000
0.190000 0.020000 0.070000
0.190000 0.010000 0.080000
0.190000 0.020000 0.080000
0.190000 0.010000 0.090000
0.190000 0.020000 0.090000
0.200000 0.010000 0.010000
0.200000 0.020000 0.010000
0.200000 0.010000 0.020000
0.200000 0.020000 0.020000
0.200000 0.010000 0.030000
0.200000 0.020000 0.030000
0.200000 0.010000 0.040000
0.200000 0.020000 0.040000
0.200000 0.010000 0.050000
0.200000 0.020000 0.050000
0.200000 0.010000 0.060000
0.200000 0.020000 0.060000
0.200000 0.010000 0.070000
0.200000 0.020000 0.070000
0.200000 0.010000 0.080000
0.200000 0.020000 0.080000
0.200000 0.010000 0.090000
0.200000 0.020000 0.090000
0.210000 0.010000 0.010000
0.210000 0.020000 0.010000
0.210000 0.010000 0.020000
0.210000 0.020000 0.020000
0.210000 0.010000 0.030000
0.210000 0.020000 0.030000
0.210000 0.010000 0.040000
0.210000 0.020000 0.040000
0.210000 0.010000 0.050000
0.210000 0.020000 0.050000
0.210000 0.010000 0.060000
0.210000 0.020000 0.060000
0.210000 0.010000 0.070000
0.210000 0.020000 0.070000
0.210000 0.010000 0.080000
0.210000 0.020000 0.080000
0.210000 0.010000 0.090000
0.210000 0.020000 0.090000
0.220000 0.010000 0.010000
0.220000 0.020000 0.010000
0.220000 0.010000 0.020000
0.220000 0.020000 0.020000
0.220000 0.010000 0.030000
0.220000 0.020000 0.030000
0.220000 0.010000 0.040000
0.220000 0.020000 0.040000
0.220000 0.010000 0.050000
0.220000 0.020000 0.050000
0.220000 0.010000 0.060000
0.220000 0.020000 0.060000
0.220000 0.010000 0.070000
0.220000 0.020000 0.070000
0.220000 0.010000 0.080000
0.220000 0.020000 0.080000
0.220000 0.010000 0.090000
0.220000 0.020000 0.090000
0.230000 0.010000 0.010000
0.230000 0.020000 0.010000
0.230000 0.010000 0.020000
0.230000 0.020000 0.020000
0.230000 0.010000 0.030000
0.230000 0.020000 0.030000
0.230000 0.010000 0.040000
0.230000 0.020000 0.040000
0.230000 0.010000 0.050000
0.230000 0.020000 0.050000
0.230000 0.010000 0.060000
0.230000 0.020000 0.060000
0.230000 0.010000 0.070000
0.230000 0.020000 0.070000
0.230000 0.010000 0.080000
0.230000 0.020000 0.080000
0.230000 0.010000 0.090000
0.230000 0.020000 0.090000
0.240000 0.010000 0.010000
0.240000 0.020000 0.010000
0.240000 0.010000 0.020000
0.240000 0.020000 0.020000
0.240000 0.010000 0.030000
0.240000 0.020000 0.030000
0.240000 0.010000 0.040000
0.240000 0.020000 0.040000
0.240000 0.010000 0.050000
0.240000 0.020000 0.050000
0.240000 0.010000 0.060000
0.240000 0.020000 0.060000
0.240000 0.010000 0.070000
0.240000 0.020000 0.070000
0.240000 0.010000 0.080000
0.240000 0.020000 0.080000
0.240000 0.010000 0.090000
0.240000 0.020000 0.090000
0.250000 0.010000 0.010000
0.250000 0.020000 0.010000
0.250000 0.010000 0.020000
0.250000 0.020000 0.020000
0.250000 0.010000 0.030000
0.250000 0.020000 0.030000
0.250000 0.010000 0.040000
0.250000 0.020000 0.040000
0.250000 0.010000 0.050000
0.250000 0.020000 0.050000
0.250000 0.010000 0.060000
0.250000 0.020000 0.060000
0.250000 0.010000 0.070000
0.250000 0.020000 0.070000
0.250000 0.010000 0.080000
0.250000 0.020000 0.080000
0.250000 0.010000 0.090000
0.250000 0.020000 0.090000
0.260000 0.010000 0.010000
0.260000 0.020000 0.010000
0.260000 0.010000 0.020000
0.260000 0.020000 0.020000
0.260000 0.010000 0.030000
0.260000 0.020000 0.030000
0.260000 0.010000 0.040000
0.260000 0.020000 0.040000
0.260000 0.010000 0.050000
0.260000 0.020000 0.050000
0.260000 0.010000 0.060000
0.260000 0.020000 0.060000
0.260000 0.010000 0.070000
0.260000 0.020000 0.070000
0.260000 0.010000 0.080000
0.260000 0.020000 0.080000
0.260000 0.010000 0.090000
0.260000 0.020000 0.090000
0.270000 0.010000 0.010000
0.270000 0.020000 0.010000
0.270000 0.010000 0.020000
0.270000 0.020000 0.020000
0.270000 0.010000 0.030000
0.270000 0.020000 0.030000
0.270000 0.010000 0.040000
0.270000 0.020000 0.040000
0.270000 0.010000 0.050000
0.270000 0.020000 0.050000
0.270000 0.010000 0.060000
0.270000 0.020000 0.060000
0.270000 0.010000 0.070000
0.270000 0.020000 0.070000
0.270000 0.010000 0.080000
0.270000 0.020000 0.080000
0.270000 0.010000 0.090000
0.270000 0.020000 0.090000
0.280000 0.010000 0.010000
0.280000 0.020000 0.010000
0.280000 0.010000 0.020000
0.280000 0.020000 0.020000
0.280000 0.010000 0.030000
0.280000 0.020000 0.030000
0.280000 0.010000 0.040000
0.280000 0.020000 0.040000
0.280000 0.010000 0.050000
0.280000 0.020000 0.050000
0.280000 0.010000 0.060000
0.280000 0.020000 0.060000
0.280000 0.010000 0.070000
0.280000 0.020000 0.070000
0.280000 0.010000 0.080000
0.280000 0.020000 0.080000
0.280000 0.010000 0.090000
0.280000 0.020000 0.090000
0.290000 0.010000 0.010000
0.290000 0.020000 0.010000
0.290000 0.010000 0.020000
0.290000 0.020000 0.020000
0.290000 0.010000 0.030000
0.290000 0.020000 0.030000
0.290000 0.010000 0.040000
0.290000 0.020000 0.040000
0.290000 0.010000 0.050000
0.290000 0.020000 0.050000
0.290000 0.010000 0.060000
0.290000 0.020000 0.060000
0.290000 0.010000 0.070000
0.290000 0.020000 0.070000
0.290000 0.010000 0.080000
0.290000 0.020000 0.080000
0.290000 0.010000 0.090000
0.290000 0.020000 0.090000


CELLS 900 8100
8 138 139 791 810 823 420 842 824 
8 810 791 790 811 824 842 843 825 
8 811 790 470 429 825 843 471 812 
8 823 420 842 824 822 421 844 826 
8 824 842 843 825 826 844 845 827 
8 825 843 471 812 827 845 472 813 
8 822 421 844 826 137 422 846 828 
8 826 844 845 827 828 846 847 829 
8 827 845 472 813 829 847 473 814 
8 137 422 846 828 136 423 848 830 
8 828 846 847 829 830 848 849 831 
8 829 847 473 814 831 849 474 815 
8 136 423 848 830 135 424 850 832 
8 830 848 849 831 832 850 851 833 
8 831 849 474 815 833 851 475 816 
8 135 424 850 832 821 425 852 834 
8 832 850 851 833 834 852 853 835 
8 833 851 475 816 835 853 476 430 
8 821 425 852 834 820 426 854 836 
8 834 852 853 835 836 854 855 837 
8 835 853 476 430 837 855 477 817 
8 820 426 854 836 134 427 856 838 
8 836 854 855 837 838 856 857 839 
8 837 855 477 817 839 857 478 818 
8 134 427 856 838 133 428 858 840 
8 838 856 857 839 840 858 859 841 
8 839 857 478 818 841 859 479 431 
8 133 428 858 840 819 0 65 64 
8 840 858 859 841 64 65 94 63 
8 841 859 479 431 63 94 61 62 
8 139 140 789 791 420 411 860 842 
8 791 789 788 790 842 860 861 843 
8 790 788 469 470 843 861 480 471 
8 420 411 860 842 421 412 862 844 
8 842 860 861 843 844 862 863 845 
8 843 861 480 471 845 863 481 472 
8 421 412 862 844 422 413 864 846 
8 844 862 863 845 846 864 865 847 
8 845 863 481 472 847 865 482 473 
8 422 413 864 846 423 414 866 848 
8 846 864 865 847 848 866 867 849 
8 847 865 482 473 849 867 483 474 
8 423 414 866 848 424 415 868 850 
8 848 866 867 849 850 868 869 851 
8 849 867 483 474 851 869 484 475 
8 424 415 868 850 425 416 870 852 
8 850 868 869 851 852 870 871 853 
8 851 869 484 475 853 871 485 476 
8 425 416 870 852 426 417 872 854 
8 852 870 871 853 854 872 873 855 
8 853 871 485 476 855 873 486 477 
8 426 417 872 854 427 418 874 856 
8 854 872 873 855 856 874 875 857 
8 855 873 486 477 857 875 487 478 
8 427 418 874 856 428 419 876 858 
8 856 874 875 857 858 876 877 859 
8 857 875 487 478 859 877 488 479 
8 428 419 876 858 0 1 66 65 
8 858 876 877 859 65 66 95 94 
8 859 877 488 479 94 95 60 61 
8 140 141 787 789 411 402 878 860 
8 789 787 786 788 860 878 879 861 
8 788 786 468 469 861 879 489 480 
8 411 402 878 860 412 403 880 862 
8 860 878 879 861 862 880 881 863 
8 861 879 489 480 863 881 490 481 
8 412 403 880 862 413 404 882 864 
8 862 880 881 863 864 882 883 865 
8 863 881 490 481 865 883 491 482 
8 413 404 882 864 414 405 884 866 
8 864 882 883 865 866 884 885 867 
8 865 883 491 482 867 885 492 483 
8 414 405 884 866 415 406 886 868 
8 866 884 885 867 868 886 887 869 
8 867 885 492 483 869 887 493 484 
8 415 406 886 868 416 407 888 870 
8 868 886 887 869 870 888 889 871 
8 869 887 493 484 871 889 494 485 
8 416 407 888 870 417 408 890 872 
8 870 888 889 871 872 890 891 873 
8 871 889 494 485 873 891 495 486 
8 417 408 890 872 418 409 892 874 
8 872 890 891 873 874 892 893 875 
8 873 891 495 486 875 893 496 487 
8 418 409 892 874 419 410 894 876 
8 874 892 893 875 876 894 895 877 
8 875 893 496 487 877 895 497 488 
8 419 410 894 876 1 2 67 66 
8 876 894 895 877 66 67 96 95 
8 877 895 497 488 95 96 59 60 
8 141 142 785 787 402 393 896 878 
8 787 785 784 786 878 896 897 879 
8 786 784 467 468 879 897 498 489 
8 402 393 896 878 403 394 898 880 
8 878 896 897 879 880 898 899 881 
8 879 897 498 489 881 899 499 490 
8 403 394 898 880 404 395 900 882 
8 880 898 899 881 882 900 901 883 
8 881 899 499 490 883 901 500 491 
8 404 395 900 882 405 396 902 884 
8 882 900 901 883 884 902 903 885 
8 883 901 500 491 885 903 501 492 
8 405 396 902 884 406 397 904 886 
8 884 902 903 885 886 904 905 887 
8 885 903 501 492 887 905 502 493 
8 406 397 904 886 407 398 906 888 
8 886 904 905 887 888 906 907 889 
8 887 905 502 493 889 907 503 494 
8 407 398 906 888 408 399 908 890 
8 888 906 907 889 890 908 909 891 
8 889 907 503 494 891 909 504 495 
8 408 399 908 890 409 400 910 892 
8 890 908 909 891 892 910 911 893 
8 891 909 504 495 893 911 505 496 
8 409 400 910 892 410 401 912 894 
8 892 910 911 893 894 912 913 895 
8 893 911 505 496 895 913 506 497 
8 410 401 912 894 2 3 68 67 
8 894 912 913 895 67 68 97 96 
8 895 913 506 497 96 97 58 59 
8 142 143 783 785 393 384 914 896 
8 785 783 782 784 896 914 915 897 
8 784 782 466 467 897 915 507 498 
8 393 384 914 896 394 385 916 898 
8 896 914 915 897 898 916 917 899 
8 897 915 507 498 899 917 508 499 
8 394 385 916 898 395 386 918 900 
8 898 916 917 899 900 918 919 901 
8 899 917 508 499 901 919 509 500 
8 395 386 918 900 396 387 920 902 
8 900 918 919 901 902 920 921 903 
8 901 919 509 500 903 921 510 501 
8 396 387 920 902 397 388 922 904 
8 902 920 921 903 904 922 923 905 
8 903 921 510 501 905 923 511 502 
8 397 388 922 904 398 389 924 906 
8 904 922 923 905 906 924 925 907 
8 905 923 511 502 907 925 512 503 
8 398 389 924 906 399 390 926 908 
8 906 924 925 907 908 926 927 909 
8 907 925 512 503 909 927 513 504 
8 399 390 926 908 400 391 928 910 
8 908 926 927 909 910 928 929 911 
8 909 927 513 504 911 929 514 505 
8 400 391 928 910 401 392 930 912 
8 910 928 929 911 912 930 931 913 
8 911 929 514 505 913 931 515 506 
8 401 392 930 912 3 4 69 68 
8 912 930 931 913 68 69 98 97 
8 913 931 515 506 97 98 57 58 
8 143 144 781 783 384 375 932 914 
8 783 781 780 782 914 932 933 915 
8 782 780 465 466 915 933 516 507 
8 384 375 932 914 385 376 934 916 
8 914 932 933 915 916 934 935 917 
8 915 933 516 507 917 935 517 508 
8 385 376 934 916 386 377 936 918 
8 916 934 935 917 918 936 937 919 
8 917 935 517 508 919 937 518 509 
8 386 377 936 918 387 378 938 920 
8 918 936 937 919 920 938 939 921 
8 919 937 518 509 921 939 519 510 
8 387 378 938 920 388 379 940 922 
8 920 938 939 921 922 940 941 923 
8 921 939 519 510 923 941 520 511 
8 388 379 940 922 389 380 942 924 
8 922 940 941 923 924 942 943 925 
8 923 941 520 511 925 943 521 512 
8 389 380 942 924 390 381 944 926 
8 924 942 943 925 926 944 945 927 
8 925 943 521 512 927 945 522 513 
8 390 381 944 926 391 382 946 928 
8 926 944 945 927 928 946 947 929 
8 927 945 522 513 929 947 523 514 
8 391 382 946 928 392 383 948 930 
8 928 946 947 929 930 948 949 931 
8 929 947 523 514 931 949 524 515 
8 392 383 948 930 4 5 70 69 
8 930 948 949 931 69 70 99 98 
8 931 949 524 515 98 99 56 57 
8 144 145 779 781 375 366 950 932 
8 781 779 778 780 932 950 951 933 
8 780 778 464 465 933 951 525 516 
8 375 366 950 932 376 367 952 934 
8 932 950 951 933 934 952 953 935 
8 933 951 525 516 935 953 526 517 
8 376 367 952 934 377 368 954 936 
8 934 952 953 935 936 954 955 937 
8 935 953 526 517 937 955 527 518 
8 377 368 954 936 378 369 956 938 
8 936 954 955 937 938 956 957 939 
8 937 955 527 518 939 957 528 519 
8 378 369 956 938 379 370 958 940 
8 938 956 957 939 940 958 959 941 
8 939 957 528 519 941 959 529 520 
8 379 370 958 940 380 371 960 942 
8 940 958 959 941 942 960 961 943 
8 941 959 529 520 943 961 530 521 
8 380 371 960 942 381 372 962 944 
8 942 960 961 943 944 962 963 945 
8 943 961 530 521 945 963 531 522 
8 381 372 962 944 382 373 964 946 
8 944 962 963 945 946 964 965 947 
8 945 963 531 522 947 965 532 523 
8 382 373 964 946 383 374 966 948 
8 946 964 965 947 948 966 967 949 
8 947 965 532 523 949 967 533 524 
8 383 374 966 948 5 6 71 70 
8 948 966 967 949 70 71 100 99 
8 949 967 533 524 99 100 55 56 
8 145 146 777 779 366 357 968 950 
8 779 777 776 778 950 968 969 951 
8 778 776 463 464 951 969 534 525 
8 366 357 968 950 367 358 970 952 
8 950 968 969 951 952 970 971 953 
8 951 969 534 525 953 971 535 526 
8 367 358 970 952 368 359 972 954 
8 952 970 971 953 954 972 973 955 
8 953 971 535 526 955 973 536 527 
8 368 359 972 954 369 360 974 956 
8 954 972 973 955 956 974 975 957 
8 955 973 536 527 957 975 537 528 
8 369 360 974 956 370 361 976 958 
8 956 974 975 957 958 976 977 959 
8 957 975 537 528 959 977 538 529 
8 370 361 976 958 371 362 978 960 
8 958 976 977 959 960 978 979 961 
8 959 977 538 529 961 979 539 530 
8 371 362 978 960 372 363 980 962 
8 960 978 979 961 962 980 981 963 
8 961 979 539 530 963 981 540 531 
8 372 363 980 962 373 364 982 964 
8 962 980 981 963 964 982 983 965 
8 963 981 540 531 965 983 541 532 
8 373 364 982 964 374 365 984 966 
8 964 982 983 965 966 984 985 967 
8 965 983 541 532 967 985 542 533 
8 374 365 984 966 6 7 72 71 
8 966 984 985 967 71 72 101 100 
8 967 985 542 533 100 101 54 55 
8 146 147 775 777 357 348 986 968 
8 777 775 774 776 968 986 987 969 
8 776 774 462 463 969 987 543 534 
8 357 348 986 968 358 349 988 970 
8 968 986 987 969 970 988 989 971 
8 969 987 543 534 971 989 544 535 
8 358 349 988 970 359 350 990 972 
8 970 988 989 971 972 990 991 973 
8 971 989 544 535 973 991 545 536 
8 359 350 990 972 360 351 992 974 
8 972 990 991 973 974 992 993 975 
8 973 991 545 536 975 993 546 537 
8 360 351 992 974 361 352 994 976 
8 974 992 993 975 976 994 995 977 
8 975 993 546 537 977 995 547 538 
8 361 352 994 976 362 353 996 978 
8 976 994 995 977 978 996 997 979 
8 977 995 547 538 979 997 548 539 
8 362 353 996 978 363 354 998 980 
8 978 996 997 979 980 998 999 981 
8 979 997 548 539 981 999 549 540 
8 363 354 998 980 364 355 1000 982 
8 980 998 999 981 982 1000 1001 983 
8 981 999 549 540 983 1001 550 541 
8 364 355 1000 982 365 356 1002 984 
8 982 1000 1001 983 984 1002 1003 985 
8 983 1001 550 541 985 1003 551 542 
8 365 356 1002 984 7 8 73 72 
8 984 1002 1003 985 72 73 102 101 
8 985 1003 551 542 101 102 53 54 
8 147 148 773 775 348 339 1004 986 
8 775 773 772 774 986 1004 1005 987 
8 774 772 461 462 987 1005 552 543 
8 348 339 1004 986 349 340 1006 988 
8 986 1004 1005 987 988 1006 1007 989 
8 987 1005 552 543 989 1007 553 544 
8 349 340 1006 988 350 341 1008 990 
8 988 1006 1007 989 990 1008 1009 991 
8 989 1007 553 544 991 1009 554 545 
8 350 341 1008 990 351 342 1010 992 
8 990 1008 1009 991 992 1010 1011 993 
8 991 1009 554 545 993 1011 555 546 
8 351 342 1010 992 352 343 1012 994 
8 992 1010 1011 993 994 1012 1013 995 
8 993 1011 555 546 995 1013 556 547 
8 352 343 1012 994 353 344 1014 996 
8 994 1012 1013 995 996 1014 1015 997 
8 995 1013 556 547 997 1015 557 548 
8 353 344 1014 996 354 345 1016 998 
8 996 1014 1015 997 998 1016 1017 999 
8 997 1015 557 548 999 1017 558 549 
8 354 345 1016 998 355 346 1018 1000 
8 998 1016 1017 999 1000 1018 1019 1001 
8 999 1017 558 549 1001 1019 559 550 
8 355 346 1018 1000 356 347 1020 1002 
8 1000 1018 1019 1001 1002 1020 1021 1003 
8 1001 1019 559 550 1003 1021 560 551 
8 356 347 1020 1002 8 9 74 73 
8 1002 1020 1021 1003 73 74 103 102 
8 1003 1021 560 551 102 103 52 53 
8 148 149 771 773 339 330 1022 1004 
8 773 771 770 772 1004 1022 1023 1005 
8 772 770 460 461 1005 1023 561 552 
8 339 330 1022 1004 340 331 1024 1006 
8 1004 1022 1023 1005 1006 1024 1025 1007 
8 1005 1023 561 552 1007 1025 562 553 
8 340 331 1024 1006 341 332 1026 1008 
8 1006 1024 1025 1007 1008 1026 1027 1009 
8 1007 1025 562 553 1009 1027 563 554 
8 341 332 1026 1008 342 333 1028 1010 
8 1008 1026 1027 1009 1010 1028 1029 1011 
8 1009 1027 563 554 1011 1029 564 555 
8 342 333 1028 1010 343 334 1030 1012 
8 1010 1028 1029 1011 1012 1030 1031 1013 
8 1011 1029 564 555 1013 1031 565 556 
8 343 334 1030 1012 344 335 1032 1014 
8 1012 1030 1031 1013 1014 1032 1033 1015 
8 1013 1031 565 556 1015 1033 566 557 
8 344 335 1032 1014 345 336 1034 1016 
8 1014 1032 1033 1015 1016 1034 1035 1017 
8 1015 1033 566 557 1017 1035 567 558 
8 345 336 1034 1016 346 337 1036 1018 
8 1016 1034 1035 1017 1018 1036 1037 1019 
8 1017 1035 567 558 1019 1037 568 559 
8 346 337 1036 1018 347 338 1038 1020 
8 1018 1036 1037 1019 1020 1038 1039 1021 
8 1019 1037 568 559 1021 1039 569 560 
8 347 338 1038 1020 9 10 75 74 
8 1020 1038 1039 1021 74 75 104 103 
8 1021 1039 569 560 103 104 51 52 
8 149 150 769 771 330 321 1040 1022 
8 771 769 768 770 1022 1040 1041 1023 
8 770 768 459 460 1023 1041 570 561 
8 330 321 1040 1022 331 322 1042 1024 
8 1022 1040 1041 1023 1024 1042 1043 1025 
8 1023 1041 570 561 1025 1043 571 562 
8 331 322 1042 1024 332 323 1044 1026 
8 1024 1042 1043 1025 1026 1044 1045 1027 
8 1025 1043 571 562 1027 1045 572 563 
8 332 323 1044 1026 333 324 1046 1028 
8 1026 1044 1045 1027 1028 1046 1047 1029 
8 1027 1045 572 563 1029 1047 573 564 
8 333 324 1046 1028 334 325 1048 1030 
8 1028 1046 1047 1029 1030 1048 1049 1031 
8 1029 1047 573 564 1031 1049 574 565 
8 334 325 1048 1030 335 326 1050 1032 
8 1030 1048 1049 1031 1032 1050 1051 1033 
8 1031 1049 574 565 1033 1051 575 566 
8 335 326 1050 1032 336 327 1052 1034 
8 1032 1050 1051 1033 1034 1052 1053 1035 
8 1033 1051 575 566 1035 1053 576 567 
8 336 327 1052 1034 337 328 1054 1036 
8 1034 1052 1053 1035 1036 1054 1055 1037 
8 1035 1053 576 567 1037 1055 577 568 
8 337 328 1054 1036 338 329 1056 1038 
8 1036 1054 1055 1037 1038 1056 1057 1039 
8 1037 1055 577 568 1039 1057 578 569 
8 338 329 1056 1038 10 11 76 75 
8 1038 1056 1057 1039 75 76 105 104 
8 1039 1057 578 569 104 105 50 51 
8 150 151 767 769 321 312 1058 1040 
8 769 767 766 768 1040 1058 1059 1041 
8 768 766 458 459 1041 1059 579 570 
8 321 312 1058 1040 322 313 1060 1042 
8 1040 1058 1059 1041 1042 1060 1061 1043 
8 1041 1059 579 570 1043 1061 580 571 
8 322 313 1060 1042 323 314 1062 1044 
8 1042 1060 1061 1043 1044 1062 1063 1045 
8 1043 1061 580 571 1045 1063 581 572 
8 323 314 1062 1044 324 315 1064 1046 
8 1044 1062 1063 1045 1046 1064 1065 1047 
8 1045 1063 581 572 1047 1065 582 573 
8 324 315 1064 1046 325 316 1066 1048 
8 1046 1064 1065 1047 1048 1066 1067 1049 
8 1047 1065 582 573 1049 1067 583 574 
8 325 316 1066 1048 326 317 1068 1050 
8 1048 1066 1067 1049 1050 1068 1069 1051 
8 1049 1067 583 574 1051 1069 584 575 
8 326 317 1068 1050 327 318 1070 1052 
8 1050 1068 1069 1051 1052 1070 1071 1053 
8 1051 1069 584 575 1053 1071 585 576 
8 327 318 1070 1052 328 319 1072 1054 
8 1052 1070 1071 1053 1054 1072 1073 1055 
8 1053 1071 585 576 1055 1073 586 577 
8 328 319 1072 1054 329 320 1074 1056 
8 1054 1072 1073 1055 1056 1074 1075 1057 
8 1055 1073 586 577 1057 1075 587 578 
8 329 320 1074 1056 11 12 77 76 
8 1056 1074 1075 1057 76 77 106 105 
8 1057 1075 587 578 105 106 49 50 
8 151 152 765 767 312 303 1076 1058 
8 767 765 764 766 1058 1076 1077 1059 
8 766 764 457 458 1059 1077 588 579 
8 312 303 1076 1058 313 304 1078 1060 
8 1058 1076 1077 1059 1060 1078 1079 1061 
8 1059 1077 588 579 1061 1079 589 580 
8 313 304 1078 1060 314 305 1080 1062 
8 1060 1078 1079 1061 1062 1080 1081 1063 
8 1061 1079 589 580 1063 1081 590 581 
8 314 305 1080 1062 315 306 1082 1064 
8 1062 1080 1081 1063 1064 1082 1083 1065 
8 1063 1081 590 581 1065 1083 591 582 
8 315 306 1082 1064 316 307 1084 1066 
8 1064 1082 1083 1065 1066 1084 1085 1067 
8 1065 1083 591 582 1067 1085 592 583 
8 316 307 1084 1066 317 308 1086 1068 
8 1066 1084 1085 1067 1068 1086 1087 1069 
8 1067 1085 592 583 1069 1087 593 584 
8 317 308 1086 1068 318 309 1088 1070 
8 1068 1086 1087 1069 1070 1088 1089 1071 
8 1069 1087 593 584 1071 1089 594 585 
8 318 309 1088 1070 319 310 1090 1072 
8 1070 1088 1089 1071 1072 1090 1091 1073 
8 1071 1089 594 585 1073 1091 595 586 
8 319 310 1090 1072 320 311 1092 1074 
8 1072 1090 1091 1073 1074 1092 1093 1075 
8 1073 1091 595 586 1075 1093 596 587 
8 320 311 1092 1074 12 13 78 77 
8 1074 1092 1093 1075 77 78 107 106 
8 1075 1093 596 587 106 107 48 49 
8 152 153 763 765 303 294 1094 1076 
8 765 763 762 764 1076 1094 1095 1077 
8 764 762 456 457 1077 1095 597 588 
8 303 294 1094 1076 304 295 1096 1078 
8 1076 1094 1095 1077 1078 1096 1097 1079 
8 1077 1095 597 588 1079 1097 598 589 
8 304 295 1096 1078 305 296 1098 1080 
8 1078 1096 1097 1079 1080 1098 1099 1081 
8 1079 1097 598 589 1081 1099 599 590 
8 305 296 1098 1080 306 297 1100 1082 
8 1080 1098 1099 1081 1082 1100 1101 1083 
8 1081 1099 599 590 1083 1101 600 591 
8 306 297 1100 1082 307 298 1102 1084 
8 1082 1100 1101 1083 1084 1102 1103 1085 
8 1083 1101 600 591 1085 1103 601 592 
8 307 298 1102 1084 308 299 1104 1086 
8 1084 1102 1103 1085 1086 1104 1105 1087 
8 1085 1103 601 592 1087 1105 602 593 
8 308 299 1104 1086 309 300 1106 1088 
8 1086 1104 1105 1087 1088 1106 1107 1089 
8 1087 1105 602 593 1089 1107 603 594 
8 309 300 1106 1088 310 301 1108 1090 
8 1088 1106 1107 1089 1090 1108 1109 1091 
8 1089 1107 603 594 1091 1109 604 595 
8 310 301 1108 1090 311 302 1110 1092 
8 1090 1108 1109 1091 1092 1110 1111 1093 
8 1091 1109 604 595 1093 1111 605 596 
8 311 302 1110 1092 13 14 79 78 
8 1092 1110 1111 1093 78 79 108 107 
8 1093 1111 605 596 107 108 47 48 
8 153 154 761 763 294 285 1112 1094 
8 763 761 760 762 1094 1112 1113 1095 
8 762 760 455 456 1095 1113 606 597 
8 294 285 1112 1094 295 286 1114 1096 
8 1094 1112 1113 1095 1096 1114 1115 1097 
8 1095 1113 606 597 1097 1115 607 598 
8 295 286 1114 1096 296 287 1116 1098 
8 1096 1114 1115 1097 1098 1116 1117 1099 
8 1097 1115 607 598 1099 1117 608 599 
8 296 287 1116 1098 297 288 1118 1100 
8 1098 1116 1117 1099 1100 1118 1119 1101 
8 1099 1117 608 599 1101 1119 609 600 
8 297 288 1118 1100 298 289 1120 1102 
8 1100 1118 1119 1101 1102 1120 1121 1103 
8 1101 1119 609 600 1103 1121 610 601 
8 298 289 1120 1102 299 290 1122 1104 
8 1102 1120 1121 1103 1104 1122 1123 1105 
8 1103 1121 610 601 1105 1123 611 602 
8 299 290 1122 1104 300 291 1124 1106 
8 1104 1122 1123 1105 1106 1124 1125 1107 
8 1105 1123 611 602 1107 1125 612 603 
8 300 291 1124 1106 301 292 1126 1108 
8 1106 1124 1125 1107 1108 1126 1127 1109 
8 1107 1125 612 603 1109 1127 613 604 
8 301 292 1126 1108 302 293 1128 1110 
8 1108 1126 1127 1109 1110 1128 1129 1111 
8 1109 1127 613 604 1111 1129 614 605 
8 302 293 1128 1110 14 15 80 79 
8 1110 1128 1129 1111 79 80 109 108 
8 1111 1129 614 605 108 109 46 47 
8 154 155 759 761 285 276 1130 1112 
8 761 759 758 760 1112 1130 1131 1113 
8 760 758 454 455 1113 1131 615 606 
8 285 276 1130 1112 286 277 1132 1114 
8 1112 1130 1131 1113 1114 1132 1133 1115 
8 1113 1131 615 606 1115 1133 616 607 
8 286 277 1132 1114 287 278 1134 1116 
8 1114 1132 1133 1115 1116 1134 1135 1117 
8 1115 1133 616 607 1117 1135 617 608 
8 287 278 1134 1116 288 279 1136 1118 
8 1116 1134 1135 1117 1118 1136 1137 1119 
8 1117 1135 617 608 1119 1137 618 609 
8 288 279 1136 1118 289 280 1138 1120 
8 1118 1136 1137 1119 1120 1138 1139 1121 
8 1119 1137 618 609 1121 1139 619 610 
8 289 280 1138 1120 290 281 1140 1122 
8 1120 1138 1139 1121 1122 1140 1141 1123 
8 1121 1139 619 610 1123 1141 620 611 
8 290 281 1140 1122 291 282 1142 1124 
8 1122 1140 1141 1123 1124 1142 1143 1125 
8 1123 1141 620 611 1125 1143 621 612 
8 291 282 1142 1124 292 283 1144 1126 
8 1124 1142 1143 1125 1126 1144 1145 1127 
8 1125 1143 621 612 1127 1145 622 613 
8 292 283 1144 1126 293 284 1146 1128 
8 1126 1144 1145 1127 1128 1146 1147 1129 
8 1127 1145 622 613 1129 1147 623 614 
8 293 284 1146 1128 15 16 81 80 
8 1128 1146 1147 1129 80 81 110 109 
8 1129 1147 623 614 109 110 45 46 
8 155 156 757 759 276 267 1148 1130 
8 759 757 756 758 1130 1148 1149 1131 
8 758 756 453 454 1131 1149 624 615 
8 276 267 1148 1130 277 268 1150 1132 
8 1130 1148 1149 1131 1132 1150 1151 1133 
8 1131 1149 624 615 1133 1151 625 616 
8 277 268 1150 1132 278 269 1152 1134 
8 1132 1150 1151 1133 1134 1152 1153 1135 
8 1133 1151 625 616 1135 1153 626 617 
8 278 269 1152 1134 279 270 1154 1136 
8 1134 1152 1153 1135 1136 1154 1155 1137 
8 1135 1153 626 617 1137 1155 627 618 
8 279 270 1154 1136 280 271 1156 1138 
8 1136 1154 1155 1137 1138 1156 1157 1139 
8 1137 1155 627 618 1139 1157 628 619 
8 280 271 1156 1138 281 272 1158 1140 
8 1138 1156 1157 1139 1140 1158 1159 1141 
8 1139 1157 628 619 1141 1159 629 620 
8 281 272 1158 1140 282 273 1160 1142 
8 1140 1158 1159 1141 1142 1160 1161 1143 
8 1141 1159 629 620 1143 1161 630 621 
8 282 273 1160 1142 283 274 1162 1144 
8 1142 1160 1161 1143 1144 1162 1163 1145 
8 1143 1161 630 621 1145 1163 631 622 
8 283 274 1162 1144 284 275 1164 1146 
8 1144 1162 1163 1145 1146 1164 1165 1147 
8 1145 1163 631 622 1147 1165 632 623 
8 284 275 1164 1146 16 17 82 81 
8 1146 1164 1165 1147 81 82 111 110 
8 1147 1165 632 623 110 111 44 45 
8 156 157 755 757 267 258 1166 1148 
8 757 755 754 756 1148 1166 1167 1149 
8 756 754 452 453 1149 1167 633 624 
8 267 258 1166 1148 268 259 1168 1150 
8 1148 1166 1167 1149 1150 1168 1169 1151 
8 1149 1167 633 624 1151 1169 634 625 
8 268 259 1168 1150 269 260 1170 1152 
8 1150 1168 1169 1151 1152 1170 1171 1153 
8 1151 1169 634 625 1153 1171 635 626 
8 269 260 1170 1152 270 261 1172 1154 
8 1152 1170 1171 1153 1154 1172 1173 1155 
8 1153 1171 635 626 1155 1173 636 627 
8 270 261 1172 1154 271 262 1174 1156 
8 1154 1172 1173 1155 1156 1174 1175 1157 
8 1155 1173 636 627 1157 1175 637 628 
8 271 262 1174 1156 272 263 1176 1158 
8 1156 1174 1175 1157 1158 1176 1177 1159 
8 1157 1175 637 628 1159 1177 638 629 
8 272 263 1176 1158 273 264 1178 1160 
8 1158 1176 1177 1159 1160 1178 1179 1161 
8 1159 1177 638 629 1161 1179 639 630 
8 273 264 1178 1160 274 265 1180 1162 
8 1160 1178 1179 1161 1162 1180 1181 1163 
8 1161 1179 639 630 1163 1181 640 631 
8 274 265 1180 1162 275 266 1182 1164 
8 1162 1180 1181 1163 1164 1182 1183 1165 
8 1163 1181 640 631 1165 1183 641 632 
8 275 266 1182 1164 17 18 83 82 
8 1164 1182 1183 1165 82 83 112 111 
8 1165 1183 641 632 111 112 43 44 
8 157 158 753 755 258 249 1184 1166 
8 755 753 752 754 1166 1184 1185 1167 
8 754 752 451 452 1167 1185 642 633 
8 258 249 1184 1166 259 250 1186 1168 
8 1166 1184 1185 1167 1168 1186 1187 1169 
8 1167 1185 642 633 1169 1187 643 634 
8 259 250 1186 1168 260 251 1188 1170 
8 1168 1186 1187 1169 1170 1188 1189 1171 
8 1169 1187 643 634 1171 1189 644 635 
8 260 251 1188 1170 261 252 1190 1172 
8 1170 1188 1189 1171 1172 1190 1191 1173 
8 1171 1189 644 635 1173 1191 645 636 
8 261 252 1190 1172 262 253 1192 1174 
8 1172 1190 1191 1173 1174 1192 1193 1175 
8 1173 1191 645 636 1175 1193 646 637 
8 262 253 1192 1174 263 254 1194 1176 
8 1174 1192 1193 1175 1176 1194 1195 1177 
8 1175 1193 646 637 1177 1195 647 638 
8 263 254 1194 1176 264 255 1196 1178 
8 1176 1194 1195 1177 1178 1196 1197 1179 
8 1177 1195 647 638 1179 1197 648 639 
8 264 255 1196 1178 265 256 1198 1180 
8 1178 1196 1197 1179 1180 1198 1199 1181 
8 1179 1197 648 639 1181 1199 649 640 
8 265 256 1198 1180 266 257 1200 1182 
8 1180 1198 1199 1181 1182 1200 1201 1183 
8 1181 1199 649 640 1183 1201 650 641 
8 266 257 1200 1182 18 19 84 83 
8 1182 1200 1201 1183 83 84 113 112 
8 1183 1201 650 641 112 113 42 43 
8 158 159 751 753 249 240 1202 1184 
8 753 751 750 752 1184 1202 1203 1185 
8 752 750 450 451 1185 1203 651 642 
8 249 240 1202 1184 250 241 1204 1186 
8 1184 1202 1203 1185 1186 1204 1205 1187 
8 1185 1203 651 642 1187 1205 652 643 
8 250 241 1204 1186 251 242 1206 1188 
8 1186 1204 1205 1187 1188 1206 1207 1189 
8 1187 1205 652 643 1189 1207 653 644 
8 251 242 1206 1188 252 243 1208 1190 
8 1188 1206 1207 1189 1190 1208 1209 1191 
8 1189 1207 653 644 1191 1209 654 645 
8 252 243 1208 1190 253 244 1210 1192 
8 1190 1208 1209 1191 1192 1210 1211 1193 
8 1191 1209 654 645 1193 1211 655 646 
8 253 244 1210 1192 254 245 1212 1194 
8 1192 1210 1211 1193 1194 1212 1213 1195 
8 1193 1211 655 646 1195 1213 656 647 
8 254 245 1212 1194 255 246 1214 1196 
8 1194 1212 1213 1195 1196 1214 1215 1197 
8 1195 1213 656 647 1197 1215 657 648 
8 255 246 1214 1196 256 247 1216 1198 
8 1196 1214 1215 1197 1198 1216 1217 1199 
8 1197 1215 657 648 1199 1217 658 649 
8 256 247 1216 1198 257 248 1218 1200 
8 1198 1216 1217 1199 1200 1218 1219 1201 
8 1199 1217 658 649 1201 1219 659 650 
8 257 248 1218 1200 19 20 85 84 
8 1200 1218 1219 1201 84 85 114 113 
8 1201 1219 659 650 113 114 41 42 
8 159 160 749 751 240 231 1220 1202 
8 751 749 748 750 1202 1220 1221 1203 
8 750 748 449 450 1203 1221 660 651 
8 240 231 1220 1202 241 232 1222 1204 
8 1202 1220 1221 1203 1204 1222 1223 1205 
8 1203 1221 660 651 1205 1223 661 652 
8 241 232 1222 1204 242 233 1224 1206 
8 1204 1222 1223 1205 1206 1224 1225 1207 
8 1205 1223 661 652 1207 1225 662 653 
8 242 233 1224 1206 243 234 1226 1208 
8 1206 1224 1225 1207 1208 1226 1227 1209 
8 1207 1225 662 653 1209 1227 663 654 
8 243 234 1226 1208 244 235 1228 1210 
8 1208 1226 1227 1209 1210 1228 1229 1211 
8 1209 1227 663 654 1211 1229 664 655 
8 244 235 1228 1210 245 236 1230 1212 
8 1210 1228 1229 1211 1212 1230 1231 1213 
8 1211 1229 664 655 1213 1231 665 656 
8 245 236 1230 1212 246 237 1232 1214 
8 1212 1230 1231 1213 1214 1232 1233 1215 
8 1213 1231 665 656 1215 1233 666 657 
8 246 237 1232 1214 247 238 1234 1216 
8 1214 1232 1233 1215 1216 1234 1235 1217 
8 1215 1233 666 657 1217 1235 667 658 
8 247 238 1234 1216 248 239 1236 1218 
8 1216 1234 1235 1217 1218 1236 1237 1219 
8 1217 1235 667 658 1219 1237 668 659 
8 248 239 1236 1218 20 21 86 85 
8 1218 1236 1237 1219 85 86 115 114 
8 1219 1237 668 659 114 115 40 41 
8 160 161 747 749 231 222 1238 1220 
8 749 747 746 748 1220 1238 1239 1221 
8 748 746 448 449 1221 1239 669 660 
8 231 222 1238 1220 232 223 1240 1222 
8 1220 1238 1239 1221 1222 1240 1241 1223 
8 1221 1239 669 660 1223 1241 670 661 
8 232 223 1240 1222 233 224 1242 1224 
8 1222 1240 1241 1223 1224 1242 1243 1225 
8 1223 1241 670 661 1225 1243 671 662 
8 233 224 1242 1224 234 225 1244 1226 
8 1224 1242 1243 1225 1226 1244 1245 1227 
8 1225 1243 671 662 1227 1245 672 663 
8 234 225 1244 1226 235 226 1246 1228 
8 1226 1244 1245 1227 1228 1246 1247 1229 
8 1227 1245 672 663 1229 1247 673 664 
8 235 226 1246 1228 236 227 1248 1230 
8 1228 1246 1247 1229 1230 1248 1249 1231 
8 1229 1247 673 664 1231 1249 674 665 
8 236 227 1248 1230 237 228 1250 1232 
8 1230 1248 1249 1231 1232 1250 1251 1233 
8 1231 1249 674 665 1233 1251 675 666 
8 237 228 1250 1232 238 229 1252 1234 
8 1232 1250 1251 1233 1234 1252 1253 1235 
8 1233 1251 675 666 1235 1253 676 667 
8 238 229 1252 1234 239 230 1254 1236 
8 1234 1252 1253 1235 1236 1254 1255 1237 
8 1235 1253 676 667 1237 1255 677 668 
8 239 230 1254 1236 21 22 87 86 
8 1236 1254 1255 1237 86 87 116 115 
8 1237 1255 677 668 115 116 39 40 
8 161 162 745 747 222 213 1256 1238 
8 747 745 744 746 1238 1256 1257 1239 
8 746 744 447 448 1239 1257 678 669 
8 222 213 1256 1238 223 214 1258 1240 
8 1238 1256 1257 1239 1240 1258 1259 1241 
8 1239 1257 678 669 1241 1259 679 670 
8 223 214 1258 1240 224 215 1260 1242 
8 1240 1258 1259 1241 1242 1260 1261 1243 
8 1241 1259 679 670 1243 1261 680 671 
8 224 215 1260 1242 225 216 1262 1244 
8 1242 1260 1261 1243 1244 1262 1263 1245 
8 1243 1261 680 671 1245 1263 681 672 
8 225 216 1262 1244 226 217 1264 1246 
8 1244 1262 1263 1245 1246 1264 1265 1247 
8 1245 1263 681 672 1247 1265 682 673 
8 226 217 1264 1246 227 218 1266 1248 
8 1246 1264 1265 1247 1248 1266 1267 1249 
8 1247 1265 682 673 1249 1267 683 674 
8 227 218 1266 1248 228 219 1268 1250 
8 1248 1266 1267 1249 1250 1268 1269 1251 
8 1249 1267 683 674 1251 1269 684 675 
8 228 219 1268 1250 229 220 1270 1252 
8 1250 1268 1269 1251 1252 1270 1271 1253 
8 1251 1269 684 675 1253 1271 685 676 
8 229 220 1270 1252 230 221 1272 1254 
8 1252 1270 1271 1253 1254 1272 1273 1255 
8 1253 1271 685 676 1255 1273 686 677 
8 230 221 1272 1254 22 23 88 87 
8 1254 1272 1273 1255 87 88 117 116 
8 1255 1273 686 677 116 117 38 39 
8 162 163 743 745 213 204 1274 1256 
8 745 743 742 744 1256 1274 1275 1257 
8 744 742 446 447 1257 1275 687 678 
8 213 204 1274 1256 214 205 1276 1258 
8 1256 1274 1275 1257 1258 1276 1277 1259 
8 1257 1275 687 678 1259 1277 688 679 
8 214 205 1276 1258 215 206 1278 1260 
8 1258 1276 1277 1259 1260 1278 1279 1261 
8 1259 1277 688 679 1261 1279 689 680 
8 215 206 1278 1260 216 207 1280 1262 
8 1260 1278 1279 1261 1262 1280 1281 1263 
8 1261 1279 689 680 1263 1281 690 681 
8 216 207 1280 1262 217 208 1282 1264 
8 1262 1280 1281 1263 1264 1282 1283 1265 
8 1263 1281 690 681 1265 1283 691 682 
8 217 208 1282 1264 218 209 1284 1266 
8 1264 1282 1283 1265 1266 1284 1285 1267 
8 1265 1283 691 682 1267 1285 692 683 
8 218 209 1284 1266 219 210 1286 1268 
8 1266 1284 1285 1267 1268 1286 1287 1269 
8 1267 1285 692 683 1269 1287 693 684 
8 219 210 1286 1268 220 211 1288 1270 
8 1268 1286 1287 1269 1270 1288 1289 1271 
8 1269 1287 693 684 1271 1289 694 685 
8 220 211 1288 1270 221 212 1290 1272 
8 1270 1288 1289 1271 1272 1290 1291 1273 
8 1271 1289 694 685 1273 1291 695 686 
8 221 212 1290 1272 23 24 89 88 
8 1272 1290 1291 1273 88 89 118 117 
8 1273 1291 695 686 117 118 37 38 
8 163 164 741 743 204 195 1292 1274 
8 743 741 740 742 1274 1292 1293 1275 
8 742 740 445 446 1275 1293 696 687 
8 204 195 1292 1274 205 196 1294 1276 
8 1274 1292 1293 1275 1276 1294 1295 1277 
8 1275 1293 696 687 1277 1295 697 688 
8 205 196 1294 1276 206 197 1296 1278 
8 1276 1294 1295 1277 1278 1296 1297 1279 
8 1277 1295 697 688 1279 1297 698 689 
8 206 197 1296 1278 207 198 1298 1280 
8 1278 1296 1297 1279 1280 1298 1299 1281 
8 1279 1297 698 689 1281 1299 699 690 
8 207 198 1298 1280 208 199 1300 1282 
8 1280 1298 1299 1281 1282 1300 1301 1283 
8 1281 1299 699 690 1283 1301 700 691 
8 208 199 1300 1282 209 200 1302 1284 
8 1282 1300 1301 1283 1284 1302 1303 1285 
8 1283 1301 700 691 1285 1303 701 692 
8 209 200 1302 1284 210 201 1304 1286 
8 1284 1302 1303 1285 1286 1304 1305 1287 
8 1285 1303 701 692 1287 1305 702 693 
8 210 201 1304 1286 211 202 1306 1288 
8 1286 1304 1305 1287 1288 1306 1307 1289 
8 1287 1305 702 693 1289 1307 703 694 
8 211 202 1306 1288 212 203 1308 1290 
8 1288 1306 1307 1289 1290 1308 1309 1291 
8 1289 1307 703 694 1291 1309 704 695 
8 212 203 1308 1290 24 25 90 89 
8 1290 1308 1309 1291 89 90 119 118 
8 1291 1309 704 695 118 119 36 37 
8 164 165 739 741 195 186 1310 1292 
8 741 739 738 740 1292 1310 1311 1293 
8 740 738 444 445 1293 1311 705 696 
8 195 186 1310 1292 196 187 1312 1294 
8 1292 1310 1311 1293 1294 1312 1313 1295 
8 1293 1311 705 696 1295 1313 706 697 
8 196 187 1312 1294 197 188 1314 1296 
8 1294 1312 1313 1295 1296 1314 1315 1297 
8 1295 1313 706 697 1297 1315 707 698 
8 197 188 1314 1296 198 189 1316 1298 
8 1296 1314 1315 1297 1298 1316 1317 1299 
8 1297 1315 707 698 1299 1317 708 699 
8 198 189 1316 1298 199 190 1318 1300 
8 1298 1316 1317 1299 1300 1318 1319 1301 
8 1299 1317 708 699 1301 1319 709 700 
8 199 190 1318 1300 200 191 1320 1302 
8 1300 1318 1319 1301 1302 1320 1321 1303 
8 1301 1319 709 700 1303 1321 710 701 
8 200 191 1320 1302 201 192 1322 1304 
8 1302 1320 1321 1303 1304 1322 1323 1305 
8 1303 1321 710 701 1305 1323 711 702 
8 201 192 1322 1304 202 193 1324 1306 
8 1304 1322 1323 1305 1306 1324 1325 1307 
8 1305 1323 711 702 1307 1325 712 703 
8 202 193 1324 1306 203 194 1326 1308 
8 1306 1324 1325 1307 1308 1326 1327 1309 
8 1307 1325 712 703 1309 1327 713 704 
8 203 194 1326 1308 25 26 91 90 
8 1308 1326 1327 1309 90 91 120 119 
8 1309 1327 713 704 119 120 35 36 
8 165 166 737 739 186 177 1328 1310 
8 739 737 736 738 1310 1328 1329 1311 
8 738 736 443 444 1311 1329 714 705 
8 186 177 1328 1310 187 178 1330 1312 
8 1310 1328 1329 1311 1312 1330 1331 1313 
8 1311 1329 714 705 1313 1331 715 706 
8 187 178 1330 1312 188 179 1332 1314 
8 1312 1330 1331 1313 1314 1332 1333 1315 
8 1313 1331 715 706 1315 1333 716 707 
8 188 179 1332 1314 189 180 1334 1316 
8 1314 1332 1333 1315 1316 1334 1335 1317 
8 1315 1333 716 707 1317 1335 717 708 
8 189 180 1334 1316 190 181 1336 1318 
8 1316 1334 1335 1317 1318 1336 1337 1319 
8 1317 1335 717 708 1319 1337 718 709 
8 190 181 1336 1318 191 182 1338 1320 
8 1318 1336 1337 1319 1320 1338 1339 1321 
8 1319 1337 718 709 1321 1339 719 710 
8 191 182 1338 1320 192 183 1340 1322 
8 1320 1338 1339 1321 1322 1340 1341 1323 
8 1321 1339 719 710 1323 1341 720 711 
8 192 183 1340 1322 193 184 1342 1324 
8 1322 1340 1341 1323 1324 1342 1343 1325 
8 1323 1341 720 711 1325 1343 721 712 
8 193 184 1342 1324 194 185 1344 1326 
8 1324 1342 1343 1325 1326 1344 1345 1327 
8 1325 1343 721 712 1327 1345 722 713 
8 194 185 1344 1326 26 27 92 91 
8 1326 1344 1345 1327 91 92 121 120 
8 1327 1345 722 713 120 121 34 35 
8 166 167 735 737 177 168 1346 1328 
8 737 735 734 736 1328 1346 1347 1329 
8 736 734 442 443 1329 1347 723 714 
8 177 168 1346 1328 178 169 1348 1330 
8 1328 1346 1347 1329 1330 1348 1349 1331 
8 1329 1347 723 714 1331 1349 724 715 
8 178 169 1348 1330 179 170 1350 1332 
8 1330 1348 1349 1331 1332 1350 1351 1333 
8 1331 1349 724 715 1333 1351 725 716 
8 179 170 1350 1332 180 171 1352 1334 
8 1332 1350 1351 1333 1334 1352 1353 1335 
8 1333 1351 725 716 1335 1353 726 717 
8 180 171 1352 1334 181 172 1354 1336 
8 1334 1352 1353 1335 1336 1354 1355 1337 
8 1335 1353 726 717 1337 1355 727 718 
8 181 172 1354 1336 182 173 1356 1338 
8 1336 1354 1355 1337 1338 1356 1357 1339 
8 1337 1355 727 718 1339 1357 728 719 
8 182 173 1356 1338 183 174 1358 1340 
8 1338 1356 1357 1339 1340 1358 1359 1341 
8 1339 1357 728 719 1341 1359 729 720 
8 183 174 1358 1340 184 175 1360 1342 
8 1340 1358 1359 1341 1342 1360 1361 1343 
8 1341 1359 729 720 1343 1361 730 721 
8 184 175 1360 1342 185 176 1362 1344 
8 1342 1360 1361 1343 1344 1362 1363 1345 
8 1343 1361 730 721 1345 1363 731 722 
8 185 176 1362 1344 27 28 93 92 
8 1344 1362 1363 1345 92 93 122 121 
8 1345 1363 731 722 121 122 33 34 
8 167 123 733 735 168 124 792 1346 
8 735 733 732 734 1346 792 793 1347 
8 734 732 441 442 1347 793 440 723 
8 168 124 792 1346 169 125 794 1348 
8 1346 792 793 1347 1348 794 795 1349 
8 1347 793 440 723 1349 795 439 724 
8 169 125 794 1348 170 126 796 1350 
8 1348 794 795 1349 1350 796 797 1351 
8 1349 795 439 724 1351 797 438 725 
8 170 126 796 1350 171 127 798 1352 
8 1350 796 797 1351 1352 798 799 1353 
8 1351 797 438 725 1353 799 437 726 
8 171 127 798 1352 172 128 800 1354 
8 1352 798 799 1353 1354 800 801 1355 
8 1353 799 437 726 1355 801 436 727 
8 172 128 800 1354 173 129 802 1356 
8 1354 800 801 1355 1356 802 803 1357 
8 1355 801 436 727 1357 803 435 728 
8 173 129 802 1356 174 130 804 1358 
8 1356 802 803 1357 1358 804 805 1359 
8 1357 803 435 728 1359 805 434 729 
8 174 130 804 1358 175 131 806 1360 
8 1358 804 805 1359 1360 806 807 1361 
8 1359 805 434 729 1361 807 433 730 
8 175 131 806 1360 176 132 808 1362 
8 1360 806 807 1361 1362 808 809 1363 
8 1361 807 433 730 1363 809 432 731 
8 176 132 808 1362 28 29 30 93 
8 1362 808 809 1363 93 30 31 122 
8 1363 809 432 731 122 31 32 33 


CELL_TYPES 900
12
12
12
12
12
12
12
12
12
12
12
12
12
12
12
12
12
12
12
12
12
12
12
12
12
12
12
12
12
12
12
12
12
12
12
12
12
12
12
12
12
12
12
12
12
12
12
12
12
12
12
12
12
12
12
12
12
12
12
12
12
12
12
12
12
12
12
12
12
12
12
12
12
12
12
12
12
12
12
12
12
12
12
12
12
12
12
12
12
12
12
12
12
12
12
12
12
12
12
12
12
12
12
12
12
12
12
12
12
12
12
12
12
12
12
12
12
12
12
12
12
12
12
12
12
12
12
12
12
12
12
12
12
12
12
12
12
12
12
12
12
12
12
12
12
12
12
12
12
12
12
12
12
12
12
12
12
12
12
12
12
12
12
12
12
12
12
12
12
12
12
12
12
12
12
12
12
12
12
12
12
12
12
12
12
12
12
12
12
12
12
12
12
12
12
12
12
12
12
12
12
12
12
12
12
12
12
12
12
12
12
12
12
12
12
12
12
12
12
12
12
12
12
12
12
12
12
12
12
12
12
12
12
12
12
12
12
12
12
12
12
12
12
12
12
12
12
12
12
12
12
12
12
12
12
12
12
12
12
12
12
12
12
12
12
12
12
12
12
12
12
12
12
12
12
12
12
12
12
12
12
12
12
12
12
12
12
12
12
12
12
12
12
12
12
12
12
12
12
12
12
12
12
12
12
12
12
12
12
12
12
12
12
12
12
12
12
12
12
12
12
12
12
12
12
12
12
12
12
12
12
12
12
12
12
12
12
12
12
12
12
12
12
12
12
12
12
12
12
12
12
12
12
12
12
12
12
12
12
12
12
12
12
12
12
12
12
12
12
12
12
12
12
12
12
12
12
12
12
12
12
12
12
12
12
12
12
12
12
12
12
12
12
12
12
12
12
12
12
12
12
12
12
12
12
12
12
12
12
12
12
12
12
12
12
12
12
12
12
12
12
12
12
12
12
12
12
12
12
12
12
12
12
12
12
12
12
12
12
12
12
12
12
12
12
12
12
12
12
12
12
12
12
12
12
12
12
12
12
12
12
12
12
12
12
12
12
12
12
12
12
12
12
12
12
12
12
12
12
12
12
12
12
12
12
12
12
12
12
12
12
12
12
12
12
12
12
12
12
12
12
12
12
12
12
12
12
12
12
12
12
12
12
12
12
12
12
12
12
12
12
12
12
12
12
12
12
12
12
12
12
12
12
12
12
12
12
12
12
12
12
12
12
12
12
12
12
12
12
12
12
12
12
12
12
12
12
12
12
12
12
12
12
12
12
12
12
12
12
12
12
12
12
12
12
12
12
12
12
12
12
12
12
12
12
12
12
12
12
12
12
12
12
12
12
12
12
12
12
12
12
12
12
12
12
12
12
12
12
12
12
12
12
12
12
12
12
12
12
12
12
12
12
12
12
12
12
12
12
12
12
12
12
12
12
12
12
12
12
12
12
12
12
12
12
12
12
12
12
12
12
12
12
12
12
12
12
12
12
12
12
12
12
12
12
12
12
12
12
12
12
12
12
12
12
12
12
12
12
12
12
12
12
12
12
12
12
12
12
12
12
12
12
12
12
12
12
12
12
12
12
12
12
12
12
12
12
12
12
12
12
12
12
12
12
12
12
12
12
12
12
12
12
12
12
12
12
12
12
12
12
12
12
12
12
12
12
12
12
12
12
12
12
12
12
12
12
12
12
12
12
12
12
12
12
12
12
12
12
12
12
12
12
12
12
12
12
12
12
12
12
12
12
12
12
12
12
12
12
12
12
12
12
12
12
12
12
12
12
12
12
12
12
12
12
12
12
12
12
12
12
12
12
12
12
12
12
12
12
12
12
12
12
12
12
12
12
12
12
12
12
12
12
12
12
12
12
12
12
12
12
12
12
12
12
12
12
12
12
12
12
12
12
12
12
12
12
12
12
12
12
12
12
12
12
12
12
12
12
12
12
12
12
12
12
12
12
12
12
12
12
12
12
12
12
12
12
12
12
12
12
12
12
12
12
12
12
12
12
12
12
12
12
12
12
12
12
12
12
12


POINT_DATA 1364
VECTORS displacement float
-0.000762 -0.000107 0.000526
-0.001542 -0.000657 0.000726
-0.002328 -0.001847 0.000841
-0.003108 -0.003614 0.000903
-0.003868 -0.005931 0.000935
-0.004602 -0.008771 0.000946
-0.005307 -0.012108 0.000942
-0.005983 -0.015917 0.000927
-0.006628 -0.020175 0.000903
-0.007243 -0.024859 0.000874
-0.007828 -0.029947 0.000840
-0.008383 -0.035419 0.000803
-0.008907 -0.041253 0.000763
-0.009402 -0.047428 0.000722
-0.009866 -0.053924 0.000679
-0.010301 -0.060721 0.000636
-0.010705 -0.067797 0.000592
-0.011080 -0.075134 0.000548
-0.011424 -0.082710 0.000504
-0.011739 -0.090506 0.000460
-0.012023 -0.098502 0.000416
-0.012278 -0.106676 0.000372
-0.012503 -0.115010 0.000329
-0.012698 -0.123482 0.000287
-0.012863 -0.132073 0.000247
-0.013000 -0.140762 0.000209
-0.013106 -0.149529 0.000173
-0.013181 -0.158352 0.000144
-0.013219 -0.167198 0.000125
-0.013229 -0.176028 0.000121
-0.004421 -0.176036 0.000063
0.004374 -0.176077 0.000015
0.013258 -0.176177 -0.000049
0.013219 -0.167196 -0.000105
0.013168 -0.158340 -0.000139
0.013093 -0.149522 -0.000173
0.012991 -0.140759 -0.000209
0.012858 -0.132072 -0.000248
0.012695 -0.123482 -0.000289
0.012501 -0.115010 -0.000331
0.012277 -0.106676 -0.000373
0.012023 -0.098502 -0.000417
0.011738 -0.090506 -0.000460
0.011424 -0.082710 -0.000504
0.011080 -0.075134 -0.000549
0.010705 -0.067797 -0.000593
0.010301 -0.060721 -0.000636
0.009866 -0.053924 -0.000679
0.009402 -0.047428 -0.000722
0.008907 -0.041253 -0.000763
0.008383 -0.035419 -0.000803
0.007828 -0.029947 -0.000840
0.007243 -0.024859 -0.000874
0.006628 -0.020175 -0.000903
0.005983 -0.015917 -0.000927
0.005307 -0.012108 -0.000942
0.004602 -0.008771 -0.000946
0.003868 -0.005931 -0.000935
0.003108 -0.003614 -0.000903
0.002328 -0.001847 -0.000841
0.001542 -0.000657 -0.000726
0.000762 -0.000107 -0.000526
0.000000 0.000000 0.000000
0.000000 0.000000 0.000000
0.000000 0.000000 0.000000
-0.000279 0.000092 0.000179
-0.000540 -0.000502 0.000245
-0.000788 -0.001690 0.000280
-0.001040 -0.003461 0.000301
-0.001288 -0.005783 0.000311
-0.001529 -0.008628 0.000314
-0.001761 -0.011971 0.000313
-0.001985 -0.015786 0.000307
-0.002198 -0.020050 0.000300
-0.002402 -0.024740 0.000290
-0.002597 -0.029835 0.000278
-0.002781 -0.035312 0.000266
-0.002955 -0.041152 0.000253
-0.003120 -0.047333 0.000239
-0.003275 -0.053835 0.000225
-0.003419 -0.060638 0.000211
-0.003554 -0.067720 0.000196
-0.003679 -0.075063 0.000182
-0.003794 -0.082645 0.000167
-0.003899 -0.090447 0.000152
-0.003994 -0.098448 0.000137
-0.004079 -0.106629 0.000123
-0.004154 -0.114968 0.000109
-0.004220 -0.123447 0.000095
-0.004276 -0.132043 0.000081
-0.004323 -0.140737 0.000069
-0.004361 -0.149509 0.000059
-0.004393 -0.158338 0.000053
-0.004415 -0.167197 0.000054
0.000279 0.000092 -0.000179
0.000540 -0.000502 -0.000245
0.000788 -0.001690 -0.000280
0.001040 -0.003461 -0.000300
0.001288 -0.005783 -0.000311
0.001529 -0.008628 -0.000314
0.001761 -0.011971 -0.000313
0.001985 -0.015786 -0.000307
0.002198 -0.020050 -0.000300
0.002402 -0.024740 -0.000290
0.002597 -0.029835 -0.000278
0.002781 -0.035312 -0.000266
0.002955 -0.041152 -0.000253
0.003120 -0.047333 -0.000239
0.003275 -0.053835 -0.000225
0.003419 -0.060638 -0.000211
0.003554 -0.067720 -0.000196
0.003679 -0.075063 -0.000182
0.003794 -0.082645 -0.000167
0.003899 -0.090447 -0.000153
0.003993 -0.098448 -0.000138
0.004078 -0.106629 -0.000124
0.004153 -0.114968 -0.000110
0.004217 -0.123446 -0.000096
0.004271 -0.132043 -0.000083
0.004315 -0.140736 -0.000069
0.004347 -0.149506 -0.000056
0.004367 -0.158331 -0.000040
0.004368 -0.167200 -0.000020
-0.013229 -0.176028 -0.000121
-0.013227 -0.176094 -0.000114
-0.013221 -0.176159 -0.000097
-0.013216 -0.176211 -0.000070
-0.013213 -0.176244 -0.000036
-0.013212 -0.176255 -0.000000
-0.013213 -0.176244 0.000036
-0.013216 -0.176211 0.000070
-0.013221 -0.176159 0.000097
-0.013227 -0.176094 0.000114
0.000000 0.000000 0.000000
0.000000 0.000000 0.000000
0.000000 0.000000 0.000000
0.000000 0.000000 0.000000
0.000000 0.000000 0.000000
0.000000 0.000000 0.000000
-0.000762 -0.000107 -0.000526
-0.001542 -0.000657 -0.000726
-0.002328 -0.001847 -0.000841
-0.003108 -0.003614 -0.000903
-0.003868 -0.005931 -0.000935
-0.004602 -0.008771 -0.000946
-0.005307 -0.012108 -0.000942
-0.005983 -0.015917 -0.000927
-0.006628 -0.020175 -0.000903
-0.007243 -0.024859 -0.000874
-0.007828 -0.029947 -0.000840
-0.008383 -0.035419 -0.000803
-0.008907 -0.041253 -0.000763
-0.009402 -0.047428 -0.000722
-0.009866 -0.053924 -0.000679
-0.010301 -0.060721 -0.000636
-0.010705 -0.067797 -0.000592
-0.011080 -0.075134 -0.000548
-0.011424 -0.082710 -0.000504
-0.011739 -0.090506 -0.000460
-0.012023 -0.098502 -0.000416
-0.012278 -0.106676 -0.000372
-0.012503 -0.115010 -0.000329
-0.012698 -0.123482 -0.000287
-0.012863 -0.132073 -0.000247
-0.013000 -0.140762 -0.000209
-0.013106 -0.149529 -0.000173
-0.013181 -0.158352 -0.000144
-0.013219 -0.167198 -0.000125
-0.013217 -0.167269 -0.000114
-0.013208 -0.167337 -0.000096
-0.013200 -0.167391 -0.000069
-0.013196 -0.167425 -0.000036
-0.013194 -0.167437 -0.000000
-0.013196 -0.167425 0.000036
-0.013200 -0.167391 0.000069
-0.013208 -0.167337 0.000096
-0.013217 -0.167269 0.000114
-0.013182 -0.158438 -0.000125
-0.013170 -0.158513 -0.000102
-0.013159 -0.158572 -0.000072
-0.013153 -0.158609 -0.000037
-0.013151 -0.158621 -0.000000
-0.013153 -0.158609 0.000037
-0.013159 -0.158572 0.000072
-0.013170 -0.158513 0.000102
-0.013182 -0.158438 0.000125
-0.013111 -0.149634 -0.000145
-0.013097 -0.149722 -0.000115
-0.013084 -0.149788 -0.000079
-0.013076 -0.149829 -0.000041
-0.013074 -0.149843 -0.000000
-0.013076 -0.149829 0.000041
-0.013084 -0.149788 0.000079
-0.013097 -0.149722 0.000115
-0.013111 -0.149634 0.000145
-0.013006 -0.140889 -0.000171
-0.012992 -0.140991 -0.000132
-0.012978 -0.141067 -0.000090
-0.012968 -0.141113 -0.000046
-0.012965 -0.141129 -0.000000
-0.012968 -0.141113 0.000046
-0.012978 -0.141067 0.000090
-0.012992 -0.140991 0.000132
-0.013006 -0.140889 0.000171
-0.012871 -0.132223 -0.000200
-0.012857 -0.132342 -0.000153
-0.012841 -0.132429 -0.000103
-0.012831 -0.132482 -0.000052
-0.012827 -0.132499 0.000000
-0.012831 -0.132482 0.000052
-0.012841 -0.132429 0.000103
-0.012857 -0.132342 0.000153
-0.012871 -0.132223 0.000200
-0.012706 -0.123656 -0.000231
-0.012691 -0.123793 -0.000175
-0.012675 -0.123892 -0.000118
-0.012665 -0.123952 -0.000059
-0.012661 -0.123972 0.000000
-0.012665 -0.123952 0.000059
-0.012675 -0.123892 0.000118
-0.012691 -0.123793 0.000175
-0.012706 -0.123656 0.000231
-0.012512 -0.115209 -0.000264
-0.012496 -0.115364 -0.000199
-0.012480 -0.115476 -0.000134
-0.012469 -0.115544 -0.000067
-0.012465 -0.115567 0.000000
-0.012469 -0.115544 0.000067
-0.012480 -0.115476 0.000134
-0.012496 -0.115364 0.000199
-0.012512 -0.115209 0.000264
-0.012287 -0.106901 -0.000298
-0.012271 -0.107076 -0.000224
-0.012255 -0.107201 -0.000150
-0.012243 -0.107277 -0.000075
-0.012239 -0.107302 0.000000
-0.012243 -0.107277 0.000075
-0.012255 -0.107201 0.000150
-0.012271 -0.107076 0.000224
-0.012287 -0.106901 0.000298
-0.012033 -0.098752 -0.000333
-0.012017 -0.098947 -0.000250
-0.012000 -0.099086 -0.000167
-0.011988 -0.099170 -0.000084
-0.011984 -0.099198 0.000000
-0.011988 -0.099170 0.000084
-0.012000 -0.099086 0.000167
-0.012017 -0.098947 0.000250
-0.012033 -0.098752 0.000333
-0.011748 -0.090783 -0.000368
-0.011732 -0.090998 -0.000276
-0.011715 -0.091151 -0.000184
-0.011703 -0.091244 -0.000092
-0.011699 -0.091274 0.000000
-0.011703 -0.091244 0.000092
-0.011715 -0.091151 0.000184
-0.011732 -0.090998 0.000276
-0.011748 -0.090783 0.000368
-0.011434 -0.083013 -0.000403
-0.011417 -0.083248 -0.000302
-0.011400 -0.083416 -0.000201
-0.011389 -0.083517 -0.000101
-0.011385 -0.083551 0.000000
-0.011389 -0.083517 0.000101
-0.011400 -0.083416 0.000201
-0.011417 -0.083248 0.000302
-0.011434 -0.083013 0.000403
-0.011089 -0.075463 -0.000438
-0.011073 -0.075718 -0.000328
-0.011056 -0.075901 -0.000219
-0.011045 -0.076010 -0.000109
-0.011041 -0.076046 0.000000
-0.011045 -0.076010 0.000109
-0.011056 -0.075901 0.000219
-0.011073 -0.075718 0.000328
-0.011089 -0.075463 0.000438
-0.010715 -0.068153 -0.000473
-0.010699 -0.068428 -0.000354
-0.010682 -0.068625 -0.000236
-0.010671 -0.068743 -0.000118
-0.010667 -0.068782 0.000000
-0.010671 -0.068743 0.000118
-0.010682 -0.068625 0.000236
-0.010699 -0.068428 0.000354
-0.010715 -0.068153 0.000473
-0.010310 -0.061102 -0.000507
-0.010294 -0.061398 -0.000380
-0.010278 -0.061608 -0.000253
-0.010267 -0.061734 -0.000126
-0.010263 -0.061776 0.000000
-0.010267 -0.061734 0.000126
-0.010278 -0.061608 0.000253
-0.010294 -0.061398 0.000380
-0.010310 -0.061102 0.000507
-0.009876 -0.054331 -0.000542
-0.009860 -0.054646 -0.000405
-0.009844 -0.054871 -0.000269
-0.009833 -0.055005 -0.000134
-0.009830 -0.055050 0.000000
-0.009833 -0.055005 0.000134
-0.009844 -0.054871 0.000269
-0.009860 -0.054646 0.000405
-0.009876 -0.054331 0.000542
-0.009411 -0.047860 -0.000575
-0.009396 -0.048194 -0.000429
-0.009381 -0.048432 -0.000285
-0.009371 -0.048574 -0.000142
-0.009367 -0.048622 0.000000
-0.009371 -0.048574 0.000142
-0.009381 -0.048432 0.000285
-0.009396 -0.048194 0.000429
-0.009411 -0.047860 0.000575
-0.008916 -0.041710 -0.000607
-0.008902 -0.042062 -0.000453
-0.008888 -0.042312 -0.000301
-0.008878 -0.042462 -0.000150
-0.008875 -0.042511 0.000000
-0.008878 -0.042462 0.000150
-0.008888 -0.042312 0.000301
-0.008902 -0.042062 0.000453
-0.008916 -0.041710 0.000607
-0.008391 -0.035899 -0.000637
-0.008379 -0.036268 -0.000475
-0.008366 -0.036530 -0.000315
-0.008357 -0.036686 -0.000157
-0.008354 -0.036738 -0.000000
-0.008357 -0.036686 0.000157
-0.008366 -0.036530 0.000315
-0.008379 -0.036268 0.000475
-0.008391 -0.035899 0.000637
-0.007836 -0.030449 -0.000666
-0.007825 -0.030833 -0.000495
-0.007814 -0.031106 -0.000327
-0.007807 -0.031268 -0.000163
-0.007804 -0.031322 -0.000000
-0.007807 -0.031268 0.000163
-0.007814 -0.031106 0.000327
-0.007825 -0.030833 0.000495
-0.007836 -0.030449 0.000666
-0.007251 -0.025379 -0.000691
-0.007242 -0.025777 -0.000512
-0.007233 -0.026058 -0.000338
-0.007228 -0.026225 -0.000168
-0.007226 -0.026280 -0.000000
-0.007228 -0.026225 0.000168
-0.007233 -0.026058 0.000338
-0.007242 -0.025777 0.000512
-0.007251 -0.025379 0.000691
-0.006635 -0.020712 -0.000711
-0.006630 -0.021120 -0.000525
-0.006624 -0.021406 -0.000345
-0.006621 -0.021576 -0.000171
-0.006620 -0.021632 -0.000000
-0.006621 -0.021576 0.000171
-0.006624 -0.021406 0.000345
-0.006630 -0.021120 0.000525
-0.006635 -0.020712 0.000711
-0.005989 -0.016466 -0.000726
-0.005987 -0.016880 -0.000533
-0.005987 -0.017169 -0.000348
-0.005987 -0.017339 -0.000172
-0.005987 -0.017395 -0.000000
-0.005987 -0.017339 0.000172
-0.005987 -0.017169 0.000348
-0.005987 -0.016880 0.000533
-0.005989 -0.016466 0.000726
-0.005312 -0.012663 -0.000733
-0.005316 -0.013078 -0.000533
-0.005322 -0.013364 -0.000346
-0.005327 -0.013532 -0.000170
-0.005329 -0.013587 -0.000000
-0.005327 -0.013532 0.000170
-0.005322 -0.013364 0.000346
-0.005316 -0.013078 0.000533
-0.005312 -0.012663 0.000733
-0.004605 -0.009325 -0.000729
-0.004616 -0.009732 -0.000524
-0.004630 -0.010009 -0.000337
-0.004641 -0.010170 -0.000165
-0.004645 -0.010222 -0.000000
-0.004641 -0.010170 0.000165
-0.004630 -0.010009 0.000337
-0.004616 -0.009732 0.000524
-0.004605 -0.009325 0.000729
-0.003868 -0.006473 -0.000710
-0.003888 -0.006862 -0.000503
-0.003912 -0.007121 -0.000319
-0.003930 -0.007268 -0.000154
-0.003937 -0.007316 -0.000000
-0.003930 -0.007268 0.000154
-0.003912 -0.007121 0.000319
-0.003888 -0.006862 0.000503
-0.003868 -0.006473 0.000710
-0.003103 -0.004129 -0.000672
-0.003134 -0.004486 -0.000465
-0.003170 -0.004715 -0.000289
-0.003196 -0.004841 -0.000138
-0.003205 -0.004882 -0.000000
-0.003196 -0.004841 0.000138
-0.003170 -0.004715 0.000289
-0.003134 -0.004486 0.000465
-0.003103 -0.004129 0.000672
-0.002312 -0.002314 -0.000608
-0.002355 -0.002619 -0.000406
-0.002402 -0.002804 -0.000244
-0.002436 -0.002903 -0.000114
-0.002447 -0.002934 -0.000000
-0.002436 -0.002903 0.000114
-0.002402 -0.002804 0.000244
-0.002355 -0.002619 0.000405
-0.002312 -0.002314 0.000608
-0.001502 -0.001047 -0.000502
-0.001555 -0.001273 -0.000315
-0.001613 -0.001401 -0.000185
-0.001648 -0.001465 -0.000085
-0.001660 -0.001485 -0.000000
-0.001648 -0.001465 0.000085
-0.001613 -0.001401 0.000185
-0.001555 -0.001273 0.000315
-0.001502 -0.001047 0.000502
-0.000687 -0.000348 -0.000310
-0.000756 -0.000473 -0.000190
-0.000801 -0.000536 -0.000109
-0.000828 -0.000567 -0.000050
-0.000836 -0.000576 -0.000000
-0.000828 -0.000567 0.000050
-0.000801 -0.000536 0.000109
-0.000756 -0.000473 0.000190
-0.000687 -0.000348 0.000310
0.000000 0.000000 0.000000
0.000000 0.000000 0.000000
0.000000 0.000000 0.000000
0.013285 -0.176246 -0.000067
0.013287 -0.176309 -0.000067
0.013285 -0.176358 -0.000051
0.013283 -0.176390 -0.000028
0.013282 -0.176400 0.000000
0.013283 -0.176390 0.000028
0.013285 -0.176358 0.000051
0.013287 -0.176309 0.000067
0.013285 -0.176246 0.000067
0.013258 -0.176176 0.000049
0.013219 -0.167196 0.000105
0.013168 -0.158340 0.000139
0.013093 -0.149522 0.000173
0.012991 -0.140759 0.000209
0.012858 -0.132072 0.000248
0.012695 -0.123482 0.000289
0.012501 -0.115010 0.000331
0.012277 -0.106676 0.000373
0.012023 -0.098502 0.000417
0.011738 -0.090506 0.000460
0.011424 -0.082710 0.000504
0.011080 -0.075134 0.000549
0.010705 -0.067797 0.000593
0.010301 -0.060721 0.000636
0.009866 -0.053924 0.000679
0.009402 -0.047428 0.000722
0.008907 -0.041253 0.000763
0.008383 -0.035419 0.000803
0.007828 -0.029947 0.000840
0.007243 -0.024859 0.000874
0.006628 -0.020175 0.000903
0.005983 -0.015917 0.000927
0.005307 -0.012108 0.000942
0.004602 -0.008771 0.000946
0.003868 -0.005931 0.000935
0.003108 -0.003614 0.000903
0.002328 -0.001847 0.000841
0.001542 -0.000657 0.000726
0.000762 -0.000107 0.000526
0.000687 -0.000348 0.000310
0.000756 -0.000473 0.000190
0.000801 -0.000536 0.000109
0.000828 -0.000567 0.000050
0.000836 -0.000576 0.000000
0.000828 -0.000567 -0.000050
0.000801 -0.000536 -0.000109
0.000756 -0.000473 -0.000190
0.000687 -0.000348 -0.000310
0.001502 -0.001047 0.000502
0.001555 -0.001273 0.000315
0.001613 -0.001401 0.000185
0.001648 -0.001465 0.000085
0.001660 -0.001485 0.000000
0.001648 -0.001465 -0.000085
0.001613 -0.001401 -0.000185
0.001555 -0.001273 -0.000315
0.001502 -0.001047 -0.000502
0.002312 -0.002314 0.000608
0.002355 -0.002619 0.000406
0.002402 -0.002804 0.000244
0.002436 -0.002903 0.000114
0.002447 -0.002934 0.000000
0.002436 -0.002903 -0.000114
0.002402 -0.002804 -0.000244
0.002355 -0.002619 -0.000405
0.002312 -0.002314 -0.000608
0.003103 -0.004129 0.000672
0.003134 -0.004486 0.000465
0.003170 -0.004715 0.000289
0.003196 -0.004841 0.000138
0.003205 -0.004882 0.000000
0.003196 -0.004841 -0.000138
0.003170 -0.004715 -0.000289
0.003134 -0.004486 -0.000465
0.003103 -0.004129 -0.000672
0.003868 -0.006473 0.000710
0.003888 -0.006862 0.000503
0.003912 -0.007121 0.000319
0.003930 -0.007268 0.000154
0.003937 -0.007316 0.000000
0.003930 -0.007268 -0.000154
0.003912 -0.007121 -0.000319
0.003888 -0.006862 -0.000503
0.003868 -0.006473 -0.000710
0.004605 -0.009325 0.000729
0.004616 -0.009732 0.000524
0.004630 -0.010009 0.000337
0.004641 -0.010170 0.000165
0.004645 -0.010222 0.000000
0.004641 -0.010170 -0.000165
0.004630 -0.010009 -0.000337
0.004616 -0.009732 -0.000524
0.004605 -0.009325 -0.000729
0.005312 -0.012663 0.000733
0.005316 -0.013078 0.000533
0.005322 -0.013364 0.000346
0.005327 -0.013532 0.000170
0.005329 -0.013587 0.000000
0.005327 -0.013532 -0.000170
0.005322 -0.013364 -0.000346
0.005316 -0.013078 -0.000533
0.005312 -0.012663 -0.000733
0.005989 -0.016466 0.000726
0.005987 -0.016880 0.000533
0.005987 -0.017169 0.000348
0.005987 -0.017339 0.000172
0.005987 -0.017395 0.000000
0.005987 -0.017339 -0.000172
0.005987 -0.017169 -0.000348
0.005987 -0.016880 -0.000533
0.005989 -0.016466 -0.000726
0.006635 -0.020712 0.000711
0.006630 -0.021120 0.000525
0.006624 -0.021406 0.000345
0.006621 -0.021576 0.000171
0.006620 -0.021632 0.000000
0.006621 -0.021576 -0.000171
0.006624 -0.021406 -0.000345
0.006630 -0.021120 -0.000525
0.006635 -0.020712 -0.000711
0.007251 -0.025379 0.000691
0.007242 -0.025777 0.000512
0.007233 -0.026058 0.000338
0.007228 -0.026225 0.000168
0.007226 -0.026280 0.000000
0.007228 -0.026225 -0.000168
0.007233 -0.026058 -0.000338
0.007242 -0.025777 -0.000512
0.007251 -0.025379 -0.000691
0.007836 -0.030449 0.000666
0.007825 -0.030833 0.000495
0.007814 -0.031106 0.000327
0.007807 -0.031268 0.000163
0.007804 -0.031322 0.000000
0.007807 -0.031268 -0.000163
0.007814 -0.031106 -0.000327
0.007825 -0.030833 -0.000495
0.007836 -0.030449 -0.000666
0.008391 -0.035899 0.000637
0.008379 -0.036268 0.000475
0.008366 -0.036530 0.000315
0.008357 -0.036686 0.000157
0.008354 -0.036738 0.000000
0.008357 -0.036686 -0.000157
0.008366 -0.036530 -0.000315
0.008379 -0.036268 -0.000475
0.008391 -0.035899 -0.000637
0.008916 -0.041710 0.000607
0.008902 -0.042062 0.000453
0.008888 -0.042312 0.000301
0.008878 -0.042462 0.000150
0.008875 -0.042511 -0.000000
0.008878 -0.042462 -0.000150
0.008888 -0.042312 -0.000301
0.008902 -0.042062 -0.000453
0.008916 -0.041710 -0.000607
0.009411 -0.047860 0.000575
0.009396 -0.048194 0.000429
0.009381 -0.048432 0.000285
0.009370 -0.048574 0.000142
0.009367 -0.048622 -0.000000
0.009370 -0.048574 -0.000142
0.009381 -0.048432 -0.000285
0.009396 -0.048194 -0.000429
0.009411 -0.047860 -0.000575
0.009876 -0.054331 0.000542
0.009860 -0.054646 0.000405
0.009844 -0.054871 0.000269
0.009833 -0.055005 0.000134
0.009830 -0.055050 -0.000000
0.009833 -0.055005 -0.000134
0.009844 -0.054871 -0.000269
0.009860 -0.054646 -0.000405
0.009876 -0.054331 -0.000542
0.010310 -0.061102 0.000508
0.010294 -0.061398 0.000380
0.010278 -0.061608 0.000253
0.010267 -0.061734 0.000126
0.010263 -0.061776 -0.000000
0.010267 -0.061734 -0.000126
0.010278 -0.061608 -0.000253
0.010294 -0.061398 -0.000380
0.010310 -0.061102 -0.000508
0.010715 -0.068153 0.000473
0.010699 -0.068428 0.000354
0.010682 -0.068625 0.000236
0.010671 -0.068743 0.000118
0.010667 -0.068782 -0.000000
0.010671 -0.068743 -0.000118
0.010682 -0.068625 -0.000236
0.010699 -0.068428 -0.000354
0.010715 -0.068153 -0.000473
0.011089 -0.075463 0.000438
0.011073 -0.075718 0.000328
0.011056 -0.075901 0.000219
0.011045 -0.076010 0.000109
0.011041 -0.076046 -0.000000
0.011045 -0.076010 -0.000109
0.011056 -0.075901 -0.000219
0.011073 -0.075718 -0.000328
0.011089 -0.075463 -0.000438
0.011433 -0.083013 0.000403
0.011417 -0.083248 0.000303
0.011400 -0.083416 0.000202
0.011389 -0.083517 0.000101
0.011385 -0.083550 -0.000000
0.011389 -0.083517 -0.000101
0.011400 -0.083416 -0.000202
0.011417 -0.083248 -0.000303
0.011433 -0.083013 -0.000403
0.011748 -0.090783 0.000368
0.011732 -0.090997 0.000277
0.011715 -0.091151 0.000185
0.011704 -0.091243 0.000092
0.011700 -0.091274 -0.000000
0.011704 -0.091243 -0.000092
0.011715 -0.091151 -0.000185
0.011732 -0.090997 -0.000277
0.011748 -0.090783 -0.000368
0.012032 -0.098752 0.000334
0.012017 -0.098947 0.000251
0.012000 -0.099086 0.000168
0.011989 -0.099170 0.000084
0.011985 -0.099198 -0.000000
0.011989 -0.099170 -0.000084
0.012000 -0.099086 -0.000168
0.012017 -0.098947 -0.000251
0.012032 -0.098752 -0.000334
0.012286 -0.106900 0.000300
0.012271 -0.107075 0.000226
0.012255 -0.107201 0.000151
0.012244 -0.107277 0.000076
0.012241 -0.107302 -0.000000
0.012244 -0.107277 -0.000076
0.012255 -0.107201 -0.000151
0.012271 -0.107075 -0.000226
0.012286 -0.106900 -0.000300
0.012510 -0.115208 0.000266
0.012496 -0.115364 0.000201
0.012481 -0.115476 0.000135
0.012471 -0.115544 0.000068
0.012467 -0.115567 -0.000000
0.012471 -0.115544 -0.000068
0.012481 -0.115476 -0.000135
0.012496 -0.115364 -0.000201
0.012510 -0.115208 -0.000266
0.012704 -0.123656 0.000234
0.012691 -0.123793 0.000177
0.012677 -0.123892 0.000119
0.012667 -0.123952 0.000060
0.012664 -0.123972 -0.000000
0.012667 -0.123952 -0.000060
0.012677 -0.123892 -0.000119
0.012691 -0.123793 -0.000177
0.012704 -0.123656 -0.000234
0.012868 -0.132222 0.000202
0.012856 -0.132342 0.000155
0.012843 -0.132429 0.000105
0.012835 -0.132482 0.000053
0.012832 -0.132500 -0.000000
0.012835 -0.132482 -0.000053
0.012843 -0.132429 -0.000105
0.012856 -0.132342 -0.000155
0.012868 -0.132222 -0.000202
0.013001 -0.140888 0.000172
0.012991 -0.140991 0.000133
0.012981 -0.141067 0.000091
0.012973 -0.141114 0.000046
0.012971 -0.141129 0.000000
0.012973 -0.141114 -0.000046
0.012981 -0.141067 -0.000091
0.012991 -0.140991 -0.000133
0.013001 -0.140888 -0.000172
0.013104 -0.149631 0.000144
0.013098 -0.149720 0.000113
0.013089 -0.149786 0.000077
0.013083 -0.149828 0.000039
0.013081 -0.149842 0.000000
0.013083 -0.149828 -0.000039
0.013089 -0.149786 -0.000077
0.013098 -0.149720 -0.000113
0.013104 -0.149631 -0.000144
0.013182 -0.158433 0.000118
0.013179 -0.158510 0.000093
0.013172 -0.158569 0.000065
0.013167 -0.158606 0.000034
0.013165 -0.158619 0.000000
0.013167 -0.158606 -0.000034
0.013172 -0.158569 -0.000065
0.013179 -0.158510 -0.000093
0.013182 -0.158433 -0.000118
0.013239 -0.167275 0.000091
0.013238 -0.167343 0.000076
0.013233 -0.167397 0.000055
0.013230 -0.167431 0.000029
0.013228 -0.167442 0.000000
0.013230 -0.167431 -0.000029
0.013233 -0.167397 -0.000055
0.013238 -0.167343 -0.000076
0.013239 -0.167275 -0.000091
0.004374 -0.176077 -0.000015
-0.004421 -0.176036 -0.000063
0.004368 -0.167200 0.000020
-0.004415 -0.167197 -0.000054
0.004367 -0.158331 0.000040
-0.004393 -0.158338 -0.000053
0.004347 -0.149506 0.000056
-0.004361 -0.149509 -0.000059
0.004315 -0.140736 0.000069
-0.004323 -0.140737 -0.000069
0.004271 -0.132043 0.000083
-0.004276 -0.132043 -0.000081
0.004217 -0.123446 0.000096
-0.004220 -0.123447 -0.000095
0.004153 -0.114968 0.000110
-0.004154 -0.114969 -0.000109
0.004078 -0.106629 0.000124
-0.004079 -0.106629 -0.000123
0.003993 -0.098448 0.000138
-0.003994 -0.098448 -0.000137
0.003899 -0.090447 0.000153
-0.003899 -0.090447 -0.000152
0.003794 -0.082645 0.000167
-0.003794 -0.082645 -0.000167
0.003679 -0.075063 0.000182
-0.003679 -0.075063 -0.000182
0.003554 -0.067720 0.000196
-0.003554 -0.067720 -0.000196
0.003419 -0.060638 0.000211
-0.003419 -0.060638 -0.000211
0.003275 -0.053835 0.000225
-0.003275 -0.053835 -0.000225
0.003120 -0.047333 0.000239
-0.003120 -0.047333 -0.000239
0.002955 -0.041152 0.000253
-0.002955 -0.041152 -0.000253
0.002781 -0.035312 0.000266
-0.002781 -0.035312 -0.000266
0.002597 -0.029835 0.000278
-0.002597 -0.029835 -0.000278
0.002402 -0.024740 0.000290
-0.002402 -0.024740 -0.000290
0.002198 -0.020050 0.000300
-0.002198 -0.020050 -0.000300
0.001985 -0.015786 0.000307
-0.001985 -0.015786 -0.000307
0.001761 -0.011971 0.000313
-0.001761 -0.011971 -0.000313
0.001529 -0.008628 0.000314
-0.001529 -0.008628 -0.000314
0.001288 -0.005783 0.000311
-0.001288 -0.005783 -0.000311
0.001040 -0.003461 0.000301
-0.001040 -0.003461 -0.000301
0.000788 -0.001690 0.000280
-0.000788 -0.001690 -0.000280
0.000540 -0.000502 0.000245
-0.000540 -0.000502 -0.000245
0.000279 0.000092 0.000179
-0.000279 0.000092 -0.000179
-0.004413 -0.176104 -0.000053
0.004396 -0.176147 0.000003
-0.004408 -0.176172 -0.000042
0.004401 -0.176214 0.000011
-0.004405 -0.176225 -0.000029
0.004402 -0.176266 0.000011
-0.004403 -0.176258 -0.000015
0.004402 -0.176299 0.000006
-0.004402 -0.176270 -0.000000
0.004402 -0.176310 0.000000
-0.004403 -0.176258 0.000015
0.004402 -0.176299 -0.000006
-0.004405 -0.176225 0.000029
0.004402 -0.176266 -0.000011
-0.004408 -0.176172 0.000042
0.004401 -0.176214 -0.000011
-0.004413 -0.176104 0.000053
0.004396 -0.176147 -0.000003
0.000000 0.000000 0.000000
0.000000 0.000000 0.000000
0.000000 0.000000 0.000000
0.000000 0.000000 0.000000
0.000000 0.000000 0.000000
0.000000 0.000000 0.000000
0.000000 0.000000 0.000000
0.000000 0.000000 0.000000
0.000000 0.000000 0.000000
0.000000 0.000000 0.000000
0.000000 0.000000 0.000000
0.000000 0.000000 0.000000
0.000000 0.000000 0.000000
0.000000 0.000000 0.000000
0.000000 0.000000 0.000000
0.000000 0.000000 0.000000
0.000000 0.000000 0.000000
0.000000 0.000000 0.000000
0.000000 0.000000 0.000000
0.000000 0.000000 0.000000
0.000000 0.000000 0.000000
0.000000 0.000000 0.000000
0.000000 0.000000 0.000000
0.000000 0.000000 0.000000
0.000000 0.000000 0.000000
0.000000 0.000000 0.000000
0.000000 0.000000 0.000000
0.000000 0.000000 0.000000
0.000000 0.000000 0.000000
0.000000 0.000000 0.000000
0.000000 0.000000 0.000000
0.000000 0.000000 0.000000
-0.000221 -0.000146 -0.000107
0.000221 -0.000146 0.000107
-0.000226 -0.000245 -0.000068
0.000226 -0.000245 0.000068
-0.000234 -0.000293 -0.000041
0.000234 -0.000293 0.000041
-0.000239 -0.000314 -0.000019
0.000239 -0.000314 0.000019
-0.000241 -0.000320 -0.000000
0.000241 -0.000320 0.000000
-0.000239 -0.000314 0.000019
0.000239 -0.000314 -0.000019
-0.000234 -0.000293 0.000041
0.000234 -0.000293 -0.000041
-0.000226 -0.000245 0.000068
0.000226 -0.000245 -0.000068
-0.000221 -0.000146 0.000107
0.000221 -0.000146 -0.000107
-0.000506 -0.000874 -0.000175
0.000506 -0.000874 0.000175
-0.000509 -0.001089 -0.000114
0.000509 -0.001089 0.000114
-0.000523 -0.001205 -0.000068
0.000523 -0.001205 0.000068
-0.000532 -0.001262 -0.000032
0.000532 -0.001262 0.000032
-0.000535 -0.001280 -0.000000
0.000535 -0.001280 0.000000
-0.000532 -0.001262 0.000032
0.000532 -0.001262 -0.000032
-0.000523 -0.001205 0.000068
0.000523 -0.001205 -0.000068
-0.000509 -0.001089 0.000114
0.000509 -0.001089 -0.000114
-0.000506 -0.000874 0.000175
0.000506 -0.000874 -0.000175
-0.000772 -0.002149 -0.000208
0.000772 -0.002149 0.000208
-0.000777 -0.002444 -0.000142
0.000777 -0.002444 0.000142
-0.000789 -0.002622 -0.000087
0.000789 -0.002622 0.000087
-0.000798 -0.002716 -0.000041
0.000798 -0.002716 0.000041
-0.000801 -0.002745 -0.000000
0.000801 -0.002745 0.000000
-0.000798 -0.002716 0.000041
0.000798 -0.002716 -0.000041
-0.000789 -0.002622 0.000087
0.000789 -0.002622 -0.000087
-0.000777 -0.002444 0.000142
0.000777 -0.002444 -0.000142
-0.000772 -0.002149 0.000208
0.000772 -0.002149 -0.000208
-0.001032 -0.003970 -0.000228
0.001032 -0.003970 0.000228
-0.001037 -0.004321 -0.000160
0.001037 -0.004321 0.000160
-0.001047 -0.004545 -0.000100
0.001047 -0.004545 0.000100
-0.001054 -0.004669 -0.000048
0.001054 -0.004669 0.000048
-0.001056 -0.004708 -0.000000
0.001056 -0.004708 0.000000
-0.001054 -0.004669 0.000048
0.001054 -0.004669 -0.000048
-0.001047 -0.004545 0.000100
0.001047 -0.004545 -0.000100
-0.001037 -0.004321 0.000160
0.001037 -0.004321 -0.000160
-0.001032 -0.003970 0.000228
0.001032 -0.003970 -0.000228
-0.001285 -0.006321 -0.000239
0.001285 -0.006321 0.000239
-0.001289 -0.006706 -0.000171
0.001289 -0.006706 0.000171
-0.001295 -0.006962 -0.000109
0.001295 -0.006962 0.000109
-0.001300 -0.007107 -0.000053
0.001300 -0.007107 0.000053
-0.001302 -0.007154 -0.000000
0.001302 -0.007154 0.000000
-0.001300 -0.007107 0.000053
0.001300 -0.007107 -0.000053
-0.001295 -0.006962 0.000109
0.001295 -0.006962 -0.000109
-0.001289 -0.006706 0.000171
0.001289 -0.006706 -0.000171
-0.001285 -0.006321 0.000239
0.001285 -0.006321 -0.000239
-0.001529 -0.009179 -0.000244
0.001529 -0.009179 0.000244
-0.001532 -0.009584 -0.000177
0.001532 -0.009584 0.000177
-0.001535 -0.009859 -0.000114
0.001535 -0.009859 0.000114
-0.001538 -0.010018 -0.000056
0.001538 -0.010018 0.000056
-0.001540 -0.010070 -0.000000
0.001540 -0.010070 0.000000
-0.001538 -0.010018 0.000056
0.001538 -0.010018 -0.000056
-0.001535 -0.009859 0.000114
0.001535 -0.009859 -0.000114
-0.001532 -0.009584 0.000177
0.001532 -0.009584 -0.000177
-0.001529 -0.009179 0.000244
0.001529 -0.009179 -0.000244
-0.001764 -0.012524 -0.000245
0.001764 -0.012524 0.000245
-0.001765 -0.012937 -0.000179
0.001765 -0.012937 0.000179
-0.001767 -0.013222 -0.000117
0.001767 -0.013222 0.000117
-0.001768 -0.013388 -0.000057
0.001768 -0.013388 0.000057
-0.001768 -0.013443 -0.000000
0.001768 -0.013443 0.000000
-0.001768 -0.013388 0.000057
0.001768 -0.013388 -0.000057
-0.001767 -0.013222 0.000117
0.001767 -0.013222 -0.000117
-0.001765 -0.012937 0.000179
0.001765 -0.012937 -0.000179
-0.001764 -0.012524 0.000245
0.001764 -0.012524 -0.000245
-0.001989 -0.016333 -0.000243
0.001989 -0.016333 0.000243
-0.001989 -0.016746 -0.000179
0.001989 -0.016746 0.000179
-0.001989 -0.017034 -0.000117
0.001989 -0.017034 0.000117
-0.001989 -0.017204 -0.000058
0.001989 -0.017204 0.000058
-0.001989 -0.017260 -0.000000
0.001989 -0.017260 0.000000
-0.001989 -0.017204 0.000058
0.001989 -0.017204 -0.000058
-0.001989 -0.017034 0.000117
0.001989 -0.017034 -0.000117
-0.001989 -0.016747 0.000179
0.001989 -0.016747 -0.000179
-0.001989 -0.016333 0.000243
0.001989 -0.016333 -0.000243
-0.002203 -0.020585 -0.000237
0.002203 -0.020585 0.000237
-0.002203 -0.020993 -0.000176
0.002203 -0.020993 0.000176
-0.002201 -0.021279 -0.000116
0.002201 -0.021279 0.000116
-0.002200 -0.021448 -0.000057
0.002200 -0.021448 0.000057
-0.002200 -0.021504 -0.000000
0.002200 -0.021504 0.000000
-0.002200 -0.021448 0.000057
0.002200 -0.021448 -0.000057
-0.002201 -0.021279 0.000116
0.002201 -0.021279 -0.000116
-0.002203 -0.020993 0.000176
0.002203 -0.020993 -0.000176
-0.002203 -0.020585 0.000237
0.002203 -0.020585 -0.000237
-0.002408 -0.025259 -0.000230
0.002408 -0.025259 0.000230
-0.002407 -0.025657 -0.000171
0.002407 -0.025657 0.000171
-0.002405 -0.025937 -0.000113
0.002405 -0.025937 0.000113
-0.002403 -0.026104 -0.000056
0.002403 -0.026104 0.000056
-0.002402 -0.026159 -0.000000
0.002402 -0.026159 0.000000
-0.002403 -0.026104 0.000056
0.002403 -0.026104 -0.000056
-0.002405 -0.025937 0.000113
0.002405 -0.025937 -0.000113
-0.002407 -0.025657 0.000171
0.002407 -0.025657 -0.000171
-0.002408 -0.025259 0.000230
0.002408 -0.025259 -0.000230
-0.002603 -0.030335 -0.000222
0.002603 -0.030335 0.000222
-0.002602 -0.030719 -0.000165
0.002602 -0.030719 0.000165
-0.002598 -0.030991 -0.000109
0.002598 -0.030991 0.000109
-0.002596 -0.031153 -0.000054
0.002596 -0.031153 0.000054
-0.002595 -0.031207 -0.000000
0.002595 -0.031207 0.000000
-0.002596 -0.031153 0.000054
0.002596 -0.031153 -0.000054
-0.002598 -0.030991 0.000109
0.002598 -0.030991 -0.000109
-0.002602 -0.030719 0.000165
0.002602 -0.030719 -0.000165
-0.002603 -0.030335 0.000222
0.002603 -0.030335 -0.000222
-0.002788 -0.035791 -0.000212
0.002788 -0.035791 0.000212
-0.002786 -0.036160 -0.000158
0.002786 -0.036160 0.000158
-0.002782 -0.036422 -0.000105
0.002782 -0.036422 0.000105
-0.002780 -0.036578 -0.000052
0.002780 -0.036578 0.000052
-0.002779 -0.036630 -0.000000
0.002779 -0.036630 0.000000
-0.002780 -0.036578 0.000052
0.002780 -0.036578 -0.000052
-0.002782 -0.036422 0.000105
0.002782 -0.036422 -0.000105
-0.002786 -0.036160 0.000158
0.002786 -0.036160 -0.000158
-0.002788 -0.035791 0.000212
0.002788 -0.035791 -0.000212
-0.002963 -0.041608 -0.000202
0.002963 -0.041608 0.000202
-0.002961 -0.041960 -0.000151
0.002961 -0.041960 0.000151
-0.002956 -0.042210 -0.000100
0.002956 -0.042210 0.000100
-0.002953 -0.042360 -0.000050
0.002953 -0.042360 0.000050
-0.002952 -0.042409 0.000000
0.002952 -0.042409 -0.000000
-0.002953 -0.042360 0.000050
0.002953 -0.042360 -0.000050
-0.002956 -0.042210 0.000100
0.002956 -0.042210 -0.000100
-0.002961 -0.041960 0.000151
0.002961 -0.041960 -0.000151
-0.002963 -0.041608 0.000202
0.002963 -0.041608 -0.000202
-0.003128 -0.047765 -0.000191
0.003128 -0.047765 0.000192
-0.003125 -0.048099 -0.000143
0.003125 -0.048099 0.000143
-0.003121 -0.048336 -0.000095
0.003121 -0.048336 0.000095
-0.003118 -0.048479 -0.000048
0.003118 -0.048479 0.000048
-0.003116 -0.048526 0.000000
0.003116 -0.048526 -0.000000
-0.003118 -0.048479 0.000048
0.003118 -0.048479 -0.000048
-0.003121 -0.048336 0.000095
0.003121 -0.048336 -0.000095
-0.003125 -0.048099 0.000143
0.003125 -0.048099 -0.000143
-0.003128 -0.047765 0.000191
0.003128 -0.047765 -0.000192
-0.003282 -0.054242 -0.000180
0.003282 -0.054242 0.000180
-0.003280 -0.054557 -0.000135
0.003280 -0.054557 0.000135
-0.003275 -0.054781 -0.000090
0.003275 -0.054781 0.000090
-0.003272 -0.054915 -0.000045
0.003272 -0.054915 0.000045
-0.003271 -0.054960 0.000000
0.003271 -0.054960 -0.000000
-0.003272 -0.054915 0.000045
0.003272 -0.054915 -0.000045
-0.003275 -0.054781 0.000090
0.003275 -0.054781 -0.000090
-0.003280 -0.054557 0.000135
0.003280 -0.054557 -0.000135
-0.003282 -0.054242 0.000180
0.003282 -0.054242 -0.000180
-0.003427 -0.061019 -0.000169
0.003427 -0.061019 0.000169
-0.003425 -0.061314 -0.000127
0.003425 -0.061314 0.000127
-0.003420 -0.061525 -0.000084
0.003420 -0.061525 0.000084
-0.003416 -0.061651 -0.000042
0.003416 -0.061651 0.000042
-0.003415 -0.061693 0.000000
0.003415 -0.061693 -0.000000
-0.003416 -0.061651 0.000042
0.003416 -0.061651 -0.000042
-0.003420 -0.061525 0.000084
0.003420 -0.061525 -0.000084
-0.003425 -0.061314 0.000127
0.003425 -0.061314 -0.000127
-0.003427 -0.061019 0.000169
0.003427 -0.061019 -0.000169
-0.003562 -0.068075 -0.000157
0.003562 -0.068075 0.000158
-0.003559 -0.068351 -0.000118
0.003559 -0.068351 0.000118
-0.003555 -0.068547 -0.000079
0.003555 -0.068547 0.000079
-0.003551 -0.068665 -0.000039
0.003551 -0.068665 0.000039
-0.003550 -0.068704 0.000000
0.003550 -0.068704 -0.000000
-0.003551 -0.068665 0.000039
0.003551 -0.068665 -0.000039
-0.003555 -0.068547 0.000079
0.003555 -0.068547 -0.000079
-0.003559 -0.068351 0.000118
0.003559 -0.068351 -0.000118
-0.003562 -0.068075 0.000157
0.003562 -0.068075 -0.000158
-0.003687 -0.075392 -0.000146
0.003687 -0.075392 0.000146
-0.003684 -0.075647 -0.000109
0.003684 -0.075647 0.000110
-0.003679 -0.075829 -0.000073
0.003679 -0.075829 0.000073
-0.003676 -0.075939 -0.000036
0.003676 -0.075939 0.000037
-0.003674 -0.075975 0.000000
0.003674 -0.075975 -0.000000
-0.003676 -0.075939 0.000036
0.003676 -0.075939 -0.000037
-0.003679 -0.075829 0.000073
0.003679 -0.075829 -0.000073
-0.003684 -0.075647 0.000109
0.003684 -0.075647 -0.000110
-0.003687 -0.075392 0.000146
0.003687 -0.075392 -0.000146
-0.003802 -0.082948 -0.000134
0.003802 -0.082948 0.000134
-0.003799 -0.083183 -0.000101
0.003799 -0.083183 0.000101
-0.003794 -0.083351 -0.000067
0.003794 -0.083351 0.000067
-0.003790 -0.083452 -0.000033
0.003791 -0.083452 0.000034
-0.003789 -0.083485 0.000000
0.003789 -0.083485 -0.000000
-0.003790 -0.083452 0.000033
0.003791 -0.083452 -0.000034
-0.003794 -0.083351 0.000067
0.003794 -0.083351 -0.000067
-0.003799 -0.083183 0.000101
0.003799 -0.083183 -0.000101
-0.003802 -0.082948 0.000134
0.003802 -0.082948 -0.000134
-0.003907 -0.090723 -0.000122
0.003906 -0.090723 0.000123
-0.003904 -0.090938 -0.000092
0.003904 -0.090938 0.000092
-0.003899 -0.091092 -0.000061
0.003899 -0.091092 0.000062
-0.003895 -0.091184 -0.000031
0.003896 -0.091184 0.000031
-0.003894 -0.091215 0.000000
0.003894 -0.091215 -0.000000
-0.003895 -0.091184 0.000031
0.003896 -0.091184 -0.000031
-0.003899 -0.091092 0.000061
0.003899 -0.091092 -0.000062
-0.003904 -0.090938 0.000092
0.003904 -0.090938 -0.000092
-0.003907 -0.090723 0.000122
0.003906 -0.090723 -0.000123
-0.004001 -0.098698 -0.000110
0.004001 -0.098698 0.000111
-0.003999 -0.098893 -0.000083
0.003999 -0.098893 0.000084
-0.003994 -0.099033 -0.000055
0.003994 -0.099033 0.000056
-0.003990 -0.099117 -0.000028
0.003991 -0.099117 0.000028
-0.003989 -0.099145 0.000000
0.003989 -0.099145 -0.000000
-0.003990 -0.099117 0.000028
0.003991 -0.099117 -0.000028
-0.003994 -0.099033 0.000055
0.003994 -0.099033 -0.000056
-0.003999 -0.098893 0.000083
0.003999 -0.098893 -0.000084
-0.004001 -0.098698 0.000110
0.004001 -0.098698 -0.000111
-0.004086 -0.106853 -0.000099
0.004086 -0.106853 0.000100
-0.004084 -0.107028 -0.000074
0.004084 -0.107028 0.000076
-0.004079 -0.107154 -0.000050
0.004079 -0.107154 0.000051
-0.004075 -0.107230 -0.000025
0.004076 -0.107230 0.000025
-0.004074 -0.107255 0.000000
0.004075 -0.107255 -0.000000
-0.004075 -0.107230 0.000025
0.004076 -0.107230 -0.000025
-0.004079 -0.107154 0.000050
0.004079 -0.107154 -0.000051
-0.004084 -0.107028 0.000074
0.004084 -0.107028 -0.000076
-0.004086 -0.106853 0.000099
0.004086 -0.106853 -0.000100
-0.004162 -0.115167 -0.000087
0.004160 -0.115167 0.000089
-0.004159 -0.115323 -0.000066
0.004158 -0.115323 0.000068
-0.004154 -0.115435 -0.000044
0.004154 -0.115435 0.000045
-0.004150 -0.115503 -0.000022
0.004152 -0.115503 0.000023
-0.004148 -0.115526 0.000000
0.004150 -0.115526 -0.000000
-0.004150 -0.115503 0.000022
0.004152 -0.115503 -0.000023
-0.004154 -0.115435 0.000044
0.004154 -0.115435 -0.000045
-0.004159 -0.115323 0.000066
0.004158 -0.115323 -0.000068
-0.004162 -0.115167 0.000087
0.004160 -0.115167 -0.000089
-0.004227 -0.123621 -0.000076
0.004225 -0.123621 0.000078
-0.004224 -0.123758 -0.000058
0.004223 -0.123758 0.000060
-0.004218 -0.123857 -0.000039
0.004220 -0.123857 0.000040
-0.004215 -0.123917 -0.000019
0.004217 -0.123917 0.000020
-0.004213 -0.123937 0.000000
0.004216 -0.123937 -0.000000
-0.004215 -0.123917 0.000019
0.004217 -0.123917 -0.000020
-0.004218 -0.123857 0.000039
0.004220 -0.123857 -0.000040
-0.004224 -0.123758 0.000058
0.004223 -0.123758 -0.000060
-0.004227 -0.123621 0.000076
0.004225 -0.123621 -0.000078
-0.004282 -0.132193 -0.000066
0.004279 -0.132193 0.000068
-0.004279 -0.132313 -0.000050
0.004278 -0.132313 0.000052
-0.004273 -0.132400 -0.000034
0.004276 -0.132400 0.000035
-0.004270 -0.132453 -0.000017
0.004274 -0.132453 0.000018
-0.004268 -0.132471 0.000000
0.004273 -0.132471 -0.000000
-0.004270 -0.132453 0.000017
0.004274 -0.132453 -0.000018
-0.004273 -0.132400 0.000034
0.004276 -0.132400 -0.000035
-0.004279 -0.132313 0.000050
0.004278 -0.132313 -0.000052
-0.004282 -0.132193 0.000066
0.004279 -0.132193 -0.000068
-0.004328 -0.140865 -0.000057
0.004323 -0.140865 0.000057
-0.004324 -0.140968 -0.000044
0.004324 -0.140968 0.000044
-0.004318 -0.141045 -0.000030
0.004322 -0.141044 0.000030
-0.004315 -0.141091 -0.000015
0.004320 -0.141091 0.000015
-0.004313 -0.141107 -0.000000
0.004320 -0.141107 0.000000
-0.004315 -0.141091 0.000015
0.004320 -0.141091 -0.000015
-0.004318 -0.141045 0.000030
0.004322 -0.141044 -0.000030
-0.004324 -0.140968 0.000044
0.004324 -0.140968 -0.000044
-0.004328 -0.140865 0.000057
0.004323 -0.140865 -0.000057
-0.004364 -0.149616 -0.000049
0.004357 -0.149615 0.000046
-0.004359 -0.149705 -0.000039
0.004359 -0.149704 0.000036
-0.004354 -0.149772 -0.000027
0.004358 -0.149771 0.000025
-0.004351 -0.149813 -0.000014
0.004356 -0.149812 0.000012
-0.004349 -0.149827 -0.000000
0.004356 -0.149826 0.000000
-0.004351 -0.149813 0.000014
0.004356 -0.149812 -0.000012
-0.004354 -0.149772 0.000027
0.004358 -0.149771 -0.000025
-0.004359 -0.149705 0.000039
0.004359 -0.149704 -0.000036
-0.004364 -0.149616 0.000049
0.004357 -0.149615 -0.000046
-0.004392 -0.158426 -0.000045
0.004379 -0.158422 0.000034
-0.004387 -0.158503 -0.000037
0.004382 -0.158499 0.000027
-0.004382 -0.158563 -0.000026
0.004382 -0.158559 0.000019
-0.004379 -0.158600 -0.000013
0.004381 -0.158596 0.000010
-0.004378 -0.158613 -0.000000
0.004380 -0.158609 0.000000
-0.004379 -0.158600 0.000013
0.004381 -0.158596 -0.000010
-0.004382 -0.158563 0.000026
0.004382 -0.158559 -0.000019
-0.004387 -0.158503 0.000037
0.004382 -0.158499 -0.000027
-0.004392 -0.158426 0.000045
0.004379 -0.158422 -0.000034
-0.004410 -0.167270 -0.000047
0.004385 -0.167276 0.000019
-0.004404 -0.167340 -0.000038
0.004389 -0.167345 0.000018
-0.004400 -0.167395 -0.000027
0.004389 -0.167400 0.000013
-0.004398 -0.167430 -0.000014
0.004388 -0.167434 0.000007
-0.004397 -0.167442 -0.000000
0.004388 -0.167446 0.000000
-0.004398 -0.167430 0.000014
0.004388 -0.167434 -0.000007
-0.004400 -0.167395 0.000027
0.004389 -0.167400 -0.000013
-0.004404 -0.167340 0.000038
0.004389 -0.167345 -0.000018
-0.004410 -0.167270 0.000047
0.004385 -0.167276 -0.000019
VECTORS nodal_force float
0.000000 0.000000 0.000000
0.000000 0.000000 0.000000
0.000000 0.000000 0.000000
0.000000 0.000000 0.000000
0.000000 0.000000 0.000000
0.000000 0.000000 0.000000
0.000000 0.000000 0.000000
0.000000 0.000000 0.000000
0.000000 0.000000 0.000000
0.000000 0.000000 0.000000
0.000000 0.000000 0.000000
0.000000 0.000000 0.000000
0.000000 0.000000 0.000000
0.000000 0.000000 0.000000
0.000000 0.000000 0.000000
0.000000 0.000000 0.000000
0.000000 0.000000 0.000000
0.000000 0.000000 0.000000
0.000000 0.000000 0.000000
0.000000 0.000000 0.000000
0.000000 0.000000 0.000000
0.000000 0.000000 0.000000
0.000000 0.000000 0.000000
0.000000 0.000000 0.000000
0.000000 0.000000 0.000000
0.000000 0.000000 0.000000
0.000000 0.000000 0.000000
0.000000 0.000000 0.000000
0.000000 0.000000 0.000000
0.000000 0.000000 0.000000
0.000000 0.000000 0.000000
0.000000 0.000000 0.000000
0.000000 -5.000000 0.000000
0.000000 0.000000 0.000000
0.000000 0.000000 0.000000
0.000000 0.000000 0.000000
0.000000 0.000000 0.000000
0.000000 0.000000 0.000000
0.000000 0.000000 0.000000
0.000000 0.000000 0.000000
0.000000 0.000000 0.000000
0.000000 0.000000 0.000000
0.000000 0.000000 0.000000
0.000000 0.000000 0.000000
0.000000 0.000000 0.000000
0.000000 0.000000 0.000000
0.000000 0.000000 0.000000
0.000000 0.000000 0.000000
0.000000 0.000000 0.000000
0.000000 0.000000 0.000000
0.000000 0.000000 0.000000
0.000000 0.000000 0.000000
0.000000 0.000000 0.000000
0.000000 0.000000 0.000000
0.000000 0.000000 0.000000
0.000000 0.000000 0.000000
0.000000 0.000000 0.000000
0.000000 0.000000 0.000000
0.000000 0.000000 0.000000
0.000000 0.000000 0.000000
0.000000 0.000000 0.000000
0.000000 0.000000 0.000000
0.000000 0.000000 0.000000
0.000000 0.000000 0.000000
0.000000 0.000000 0.000000
0.000000 0.000000 0.000000
0.000000 0.000000 0.000000
0.000000 0.000000 0.000000
0.000000 0.000000 0.000000
0.000000 0.000000 0.000000
0.000000 0.000000 0.000000
0.000000 0.000000 0.000000
0.000000 0.000000 0.000000
0.000000 0.000000 0.000000
0.000000 0.000000 0.000000
0.000000 0.000000 0.000000
0.000000 0.000000 0.000000
0.000000 0.000000 0.000000
0.000000 0.000000 0.000000
0.000000 0.000000 0.000000
0.000000 0.000000 0.000000
0.000000 0.000000 0.000000
0.000000 0.000000 0.000000
0.000000 0.000000 0.000000
0.000000 0.000000 0.000000
0.000000 0.000000 0.000000
0.000000 0.000000 0.000000
0.000000 0.000000 0.000000
0.000000 0.000000 0.000000
0.000000 0.000000 0.000000
0.000000 0.000000 0.000000
0.000000 0.000000 0.000000
0.000000 0.000000 0.000000
0.000000 0.000000 0.000000
0.000000 0.000000 0.000000
0.000000 0.000000 0.000000
0.000000 0.000000 0.000000
0.000000 0.000000 0.000000
0.000000 0.000000 0.000000
0.000000 0.000000 0.000000
0.000000 0.000000 0.000000
0.000000 0.000000 0.000000
0.000000 0.000000 0.000000
0.000000 0.000000 0.000000
0.000000 0.000000 0.000000
0.000000 0.000000 0.000000
0.000000 0.000000 0.000000
0.000000 0.000000 0.000000
0.000000 0.000000 0.000000
0.000000 0.000000 0.000000
0.000000 0.000000 0.000000
0.000000 0.000000 0.000000
0.000000 0.000000 0.000000
0.000000 0.000000 0.000000
0.000000 0.000000 0.000000
0.000000 0.000000 0.000000
0.000000 0.000000 0.000000
0.000000 0.000000 0.000000
0.000000 0.000000 0.000000
0.000000 0.000000 0.000000
0.000000 0.000000 0.000000
0.000000 0.000000 0.000000
0.000000 0.000000 0.000000
0.000000 0.000000 0.000000
0.000000 0.000000 0.000000
0.000000 0.000000 0.000000
0.000000 0.000000 0.000000
0.000000 0.000000 0.000000
0.000000 0.000000 0.000000
0.000000 0.000000 0.000000
0.000000 0.000000 0.000000
0.000000 0.000000 0.000000
0.000000 0.000000 0.000000
0.000000 0.000000 0.000000
0.000000 0.000000 0.000000
0.000000 0.000000 0.000000
0.000000 0.000000 0.000000
0.000000 0.000000 0.000000
0.000000 0.000000 0.000000
0.000000 0.000000 0.000000
0.000000 0.000000 0.000000
0.000000 0.000000 0.000000
0.000000 0.000000 0.000000
0.000000 0.000000 0.000000
0.000000 0.000000 0.000000
0.000000 0.000000 0.000000
0.000000 0.000000 0.000000
0.000000 0.000000 0.000000
0.000000 0.000000 0.000000
0.000000 0.000000 0.000000
0.000000 0.000000 0.000000
0.000000 0.000000 0.000000
0.000000 0.000000 0.000000
0.000000 0.000000 0.000000
0.000000 0.000000 0.000000
0.000000 0.000000 0.000000
0.000000 0.000000 0.000000
0.000000 0.000000 0.000000
0.000000 0.000000 0.000000
0.000000 0.000000 0.000000
0.000000 0.000000 0.000000
0.000000 0.000000 0.000000
0.000000 0.000000 0.000000
0.000000 0.000000 0.000000
0.000000 0.000000 0.000000
0.000000 0.000000 0.000000
0.000000 0.000000 0.000000
0.000000 0.000000 0.000000
0.000000 0.000000 0.000000
0.000000 0.000000 0.000000
0.000000 0.000000 0.000000
0.000000 0.000000 0.000000
0.000000 0.000000 0.000000
0.000000 0.000000 0.000000
0.000000 0.000000 0.000000
0.000000 0.000000 0.000000
0.000000 0.000000 0.000000
0.000000 0.000000 0.000000
0.000000 0.000000 0.000000
0.000000 0.000000 0.000000
0.000000 0.000000 0.000000
0.000000 0.000000 0.000000
0.000000 0.000000 0.000000
0.000000 0.000000 0.000000
0.000000 0.000000 0.000000
0.000000 0.000000 0.000000
0.000000 0.000000 0.000000
0.000000 0.000000 0.000000
0.000000 0.000000 0.000000
0.000000 0.000000 0.000000
0.000000 0.000000 0.000000
0.000000 0.000000 0.000000
0.000000 0.000000 0.000000
0.000000 0.000000 0.000000
0.000000 0.000000 0.000000
0.000000 0.000000 0.000000
0.000000 0.000000 0.000000
0.000000 0.000000 0.000000
0.000000 0.000000 0.000000
0.000000 0.000000 0.000000
0.000000 0.000000 0.000000
0.000000 0.000000 0.000000
0.000000 0.000000 0.000000
0.000000 0.000000 0.000000
0.000000 0.000000 0.000000
0.000000 0.000000 0.000000
0.000000 0.000000 0.000000
0.000000 0.000000 0.000000
0.000000 0.000000 0.000000
0.000000 0.000000 0.000000
0.000000 0.000000 0.000000
0.000000 0.000000 0.000000
0.000000 0.000000 0.000000
0.000000 0.000000 0.000000
0.000000 0.000000 0.000000
0.000000 0.000000 0.000000
0.000000 0.000000 0.000000
0.000000 0.000000 0.000000
0.000000 0.000000 0.000000
0.000000 0.000000 0.000000
0.000000 0.000000 0.000000
0.000000 0.000000 0.000000
0.000000 0.000000 0.000000
0.000000 0.000000 0.000000
0.000000 0.000000 0.000000
0.000000 0.000000 0.000000
0.000000 0.000000 0.000000
0.000000 0.000000 0.000000
0.000000 0.000000 0.000000
0.000000 0.000000 0.000000
0.000000 0.000000 0.000000
0.000000 0.000000 0.000000
0.000000 0.000000 0.000000
0.000000 0.000000 0.000000
0.000000 0.000000 0.000000
0.000000 0.000000 0.000000
0.000000 0.000000 0.000000
0.000000 0.000000 0.000000
0.000000 0.000000 0.000000
0.000000 0.000000 0.000000
0.000000 0.000000 0.000000
0.000000 0.000000 0.000000
0.000000 0.000000 0.000000
0.000000 0.000000 0.000000
0.000000 0.000000 0.000000
0.000000 0.000000 0.000000
0.000000 0.000000 0.000000
0.000000 0.000000 0.000000
0.000000 0.000000 0.000000
0.000000 0.000000 0.000000
0.000000 0.000000 0.000000
0.000000 0.000000 0.000000
0.000000 0.000000 0.000000
0.000000 0.000000 0.000000
0.000000 0.000000 0.000000
0.000000 0.000000 0.000000
0.000000 0.000000 0.000000
0.000000 0.000000 0.000000
0.000000 0.000000 0.000000
0.000000 0.000000 0.000000
0.000000 0.000000 0.000000
0.000000 0.000000 0.000000
0.000000 0.000000 0.000000
0.000000 0.000000 0.000000
0.000000 0.000000 0.000000
0.000000 0.000000 0.000000
0.000000 0.000000 0.000000
0.000000 0.000000 0.000000
0.000000 0.000000 0.000000
0.000000 0.000000 0.000000
0.000000 0.000000 0.000000
0.000000 0.000000 0.000000
0.000000 0.000000 0.000000
0.000000 0.000000 0.000000
0.000000 0.000000 0.000000
0.000000 0.000000 0.000000
0.000000 0.000000 0.000000
0.000000 0.000000 0.000000
0.000000 0.000000 0.000000
0.000000 0.000000 0.000000
0.000000 0.000000 0.000000
0.000000 0.000000 0.000000
0.000000 0.000000 0.000000
0.000000 0.000000 0.000000
0.000000 0.000000 0.000000
0.000000 0.000000 0.000000
0.000000 0.000000 0.000000
0.000000 0.000000 0.000000
0.000000 0.000000 0.000000
0.000000 0.000000 0.000000
0.000000 0.000000 0.000000
0.000000 0.000000 0.000000
0.000000 0.000000 0.000000
0.000000 0.000000 0.000000
0.000000 0.000000 0.000000
0.000000 0.000000 0.000000
0.000000 0.000000 0.000000
0.000000 0.000000 0.000000
0.000000 0.000000 0.000000
0.000000 0.000000 0.000000
0.000000 0.000000 0.000000
0.000000 0.000000 0.000000
0.000000 0.000000 0.000000
0.000000 0.000000 0.000000
0.000000 0.000000 0.000000
0.000000 0.000000 0.000000
0.000000 0.000000 0.000000
0.000000 0.000000 0.000000
0.000000 0.000000 0.000000
0.000000 0.000000 0.000000
0.000000 0.000000 0.000000
0.000000 0.000000 0.000000
0.000000 0.000000 0.000000
0.000000 0.000000 0.000000
0.000000 0.000000 0.000000
0.000000 0.000000 0.000000
0.000000 0.000000 0.000000
0.000000 0.000000 0.000000
0.000000 0.000000 0.000000
0.000000 0.000000 0.000000
0.000000 0.000000 0.000000
0.000000 0.000000 0.000000
0.000000 0.000000 0.000000
0.000000 0.000000 0.000000
0.000000 0.000000 0.000000
0.000000 0.000000 0.000000
0.000000 0.000000 0.000000
0.000000 0.000000 0.000000
0.000000 0.000000 0.000000
0.000000 0.000000 0.000000
0.000000 0.000000 0.000000
0.000000 0.000000 0.000000
0.000000 0.000000 0.000000
0.000000 0.000000 0.000000
0.000000 0.000000 0.000000
0.000000 0.000000 0.000000
0.000000 0.000000 0.000000
0.000000 0.000000 0.000000
0.000000 0.000000 0.000000
0.000000 0.000000 0.000000
0.000000 0.000000 0.000000
0.000000 0.000000 0.000000
0.000000 0.000000 0.000000
0.000000 0.000000 0.000000
0.000000 0.000000 0.000000
0.000000 0.000000 0.000000
0.000000 0.000000 0.000000
0.000000 0.000000 0.000000
0.000000 0.000000 0.000000
0.000000 0.000000 0.000000
0.000000 0.000000 0.000000
0.000000 0.000000 0.000000
0.000000 0.000000 0.000000
0.000000 0.000000 0.000000
0.000000 0.000000 0.000000
0.000000 0.000000 0.000000
0.000000 0.000000 0.000000
0.000000 0.000000 0.000000
0.000000 0.000000 0.000000
0.000000 0.000000 0.000000
0.000000 0.000000 0.000000
0.000000 0.000000 0.000000
0.000000 0.000000 0.000000
0.000000 0.000000 0.000000
0.000000 0.000000 0.000000
0.000000 0.000000 0.000000
0.000000 0.000000 0.000000
0.000000 0.000000 0.000000
0.000000 0.000000 0.000000
0.000000 0.000000 0.000000
0.000000 0.000000 0.000000
0.000000 0.000000 0.000000
0.000000 0.000000 0.000000
0.000000 0.000000 0.000000
0.000000 0.000000 0.000000
0.000000 0.000000 0.000000
0.000000 0.000000 0.000000
0.000000 0.000000 0.000000
0.000000 0.000000 0.000000
0.000000 0.000000 0.000000
0.000000 0.000000 0.000000
0.000000 0.000000 0.000000
0.000000 0.000000 0.000000
0.000000 0.000000 0.000000
0.000000 0.000000 0.000000
0.000000 0.000000 0.000000
0.000000 0.000000 0.000000
0.000000 0.000000 0.000000
0.000000 0.000000 0.000000
0.000000 0.000000 0.000000
0.000000 0.000000 0.000000
0.000000 0.000000 0.000000
0.000000 0.000000 0.000000
0.000000 0.000000 0.000000
0.000000 0.000000 0.000000
0.000000 0.000000 0.000000
0.000000 0.000000 0.000000
0.000000 0.000000 0.000000
0.000000 0.000000 0.000000
0.000000 0.000000 0.000000
0.000000 0.000000 0.000000
0.000000 0.000000 0.000000
0.000000 0.000000 0.000000
0.000000 0.000000 0.000000
0.000000 0.000000 0.000000
0.000000 0.000000 0.000000
0.000000 0.000000 0.000000
0.000000 0.000000 0.000000
0.000000 0.000000 0.000000
0.000000 0.000000 0.000000
0.000000 0.000000 0.000000
0.000000 0.000000 0.000000
0.000000 0.000000 0.000000
0.000000 0.000000 0.000000
0.000000 0.000000 0.000000
0.000000 0.000000 0.000000
0.000000 0.000000 0.000000
0.000000 0.000000 0.000000
0.000000 0.000000 0.000000
0.000000 0.000000 0.000000
0.000000 0.000000 0.000000
0.000000 0.000000 0.000000
0.000000 0.000000 0.000000
0.000000 0.000000 0.000000
0.000000 0.000000 0.000000
0.000000 0.000000 0.000000
0.000000 0.000000 0.000000
0.000000 0.000000 0.000000
0.000000 0.000000 0.000000
0.000000 0.000000 0.000000
0.000000 0.000000 0.000000
0.000000 0.000000 0.000000
0.000000 -10.000000 0.000000
0.000000 -10.000000 0.000000
0.000000 -10.000000 0.000000
0.000000 -10.000000 0.000000
0.000000 -10.000000 0.000000
0.000000 -10.000000 0.000000
0.000000 -10.000000 0.000000
0.000000 -10.000000 0.000000
0.000000 -10.000000 0.000000
0.000000 -5.000000 0.000000
0.000000 0.000000 0.000000
0.000000 0.000000 0.000000
0.000000 0.000000 0.000000
0.000000 0.000000 0.000000
0.000000 0.000000 0.000000
0.000000 0.000000 0.000000
0.000000 0.000000 0.000000
0.000000 0.000000 0.000000
0.000000 0.000000 0.000000
0.000000 0.000000 0.000000
0.000000 0.000000 0.000000
0.000000 0.000000 0.000000
0.000000 0.000000 0.000000
0.000000 0.000000 0.000000
0.000000 0.000000 0.000000
0.000000 0.000000 0.000000
0.000000 0.000000 0.000000
0.000000 0.000000 0.000000
0.000000 0.000000 0.000000
0.000000 0.000000 0.000000
0.000000 0.000000 0.000000
0.000000 0.000000 0.000000
0.000000 0.000000 0.000000
0.000000 0.000000 0.000000
0.000000 0.000000 0.000000
0.000000 0.000000 0.000000
0.000000 0.000000 0.000000
0.000000 0.000000 0.000000
0.000000 0.000000 0.000000
0.000000 0.000000 0.000000
0.000000 0.000000 0.000000
0.000000 0.000000 0.000000
0.000000 0.000000 0.000000
0.000000 0.000000 0.000000
0.000000 0.000000 0.000000
0.000000 0.000000 0.000000
0.000000 0.000000 0.000000
0.000000 0.000000 0.000000
0.000000 0.000000 0.000000
0.000000 0.000000 0.000000
0.000000 0.000000 0.000000
0.000000 0.000000 0.000000
0.000000 0.000000 0.000000
0.000000 0.000000 0.000000
0.000000 0.000000 0.000000
0.000000 0.000000 0.000000
0.000000 0.000000 0.000000
0.000000 0.000000 0.000000
0.000000 0.000000 0.000000
0.000000 0.000000 0.000000
0.000000 0.000000 0.000000
0.000000 0.000000 0.000000
0.000000 0.000000 0.000000
0.000000 0.000000 0.000000
0.000000 0.000000 0.000000
0.000000 0.000000 0.000000
0.000000 0.000000 0.000000
0.000000 0.000000 0.000000
0.000000 0.000000 0.000000
0.000000 0.000000 0.000000
0.000000 0.000000 0.000000
0.000000 0.000000 0.000000
0.000000 0.000000 0.000000
0.000000 0.000000 0.000000
0.000000 0.000000 0.000000
0.000000 0.000000 0.000000
0.000000 0.000000 0.000000
0.000000 0.000000 0.000000
0.000000 0.000000 0.000000
0.000000 0.000000 0.000000
0.000000 0.000000 0.000000
0.000000 0.000000 0.000000
0.000000 0.000000 0.000000
0.000000 0.000000 0.000000
0.000000 0.000000 0.000000
0.000000 0.000000 0.000000
0.000000 0.000000 0.000000
0.000000 0.000000 0.000000
0.000000 0.000000 0.000000
0.000000 0.000000 0.000000
0.000000 0.000000 0.000000
0.000000 0.000000 0.000000
0.000000 0.000000 0.000000
0.000000 0.000000 0.000000
0.000000 0.000000 0.000000
0.000000 0.000000 0.000000
0.000000 0.000000 0.000000
0.000000 0.000000 0.000000
0.000000 0.000000 0.000000
0.000000 0.000000 0.000000
0.000000 0.000000 0.000000
0.000000 0.000000 0.000000
0.000000 0.000000 0.000000
0.000000 0.000000 0.000000
0.000000 0.000000 0.000000
0.000000 0.000000 0.000000
0.000000 0.000000 0.000000
0.000000 0.000000 0.000000
0.000000 0.000000 0.000000
0.000000 0.000000 0.000000
0.000000 0.000000 0.000000
0.000000 0.000000 0.000000
0.000000 0.000000 0.000000
0.000000 0.000000 0.000000
0.000000 0.000000 0.000000
0.000000 0.000000 0.000000
0.000000 0.000000 0.000000
0.000000 0.000000 0.000000
0.000000 0.000000 0.000000
0.000000 0.000000 0.000000
0.000000 0.000000 0.000000
0.000000 0.000000 0.000000
0.000000 0.000000 0.000000
0.000000 0.000000 0.000000
0.000000 0.000000 0.000000
0.000000 0.000000 0.000000
0.000000 0.000000 0.000000
0.000000 0.000000 0.000000
0.000000 0.000000 0.000000
0.000000 0.000000 0.000000
0.000000 0.000000 0.000000
0.000000 0.000000 0.000000
0.000000 0.000000 0.000000
0.000000 0.000000 0.000000
0.000000 0.000000 0.000000
0.000000 0.000000 0.000000
0.000000 0.000000 0.000000
0.000000 0.000000 0.000000
0.000000 0.000000 0.000000
0.000000 0.000000 0.000000
0.000000 0.000000 0.000000
0.000000 0.000000 0.000000
0.000000 0.000000 0.000000
0.000000 0.000000 0.000000
0.000000 0.000000 0.000000
0.000000 0.000000 0.000000
0.000000 0.000000 0.000000
0.000000 0.000000 0.000000
0.000000 0.000000 0.000000
0.000000 0.000000 0.000000
0.000000 0.000000 0.000000
0.000000 0.000000 0.000000
0.000000 0.000000 0.000000
0.000000 0.000000 0.000000
0.000000 0.000000 0.000000
0.000000 0.000000 0.000000
0.000000 0.000000 0.000000
0.000000 0.000000 0.000000
0.000000 0.000000 0.000000
0.000000 0.000000 0.000000
0.000000 0.000000 0.000000
0.000000 0.000000 0.000000
0.000000 0.000000 0.000000
0.000000 0.000000 0.000000
0.000000 0.000000 0.000000
0.000000 0.000000 0.000000
0.000000 0.000000 0.000000
0.000000 0.000000 0.000000
0.000000 0.000000 0.000000
0.000000 0.000000 0.000000
0.000000 0.000000 0.000000
0.000000 0.000000 0.000000
0.000000 0.000000 0.000000
0.000000 0.000000 0.000000
0.000000 0.000000 0.000000
0.000000 0.000000 0.000000
0.000000 0.000000 0.000000
0.000000 0.000000 0.000000
0.000000 0.000000 0.000000
0.000000 0.000000 0.000000
0.000000 0.000000 0.000000
0.000000 0.000000 0.000000
0.000000 0.000000 0.000000
0.000000 0.000000 0.000000
0.000000 0.000000 0.000000
0.000000 0.000000 0.000000
0.000000 0.000000 0.000000
0.000000 0.000000 0.000000
0.000000 0.000000 0.000000
0.000000 0.000000 0.000000
0.000000 0.000000 0.000000
0.000000 0.000000 0.000000
0.000000 0.000000 0.000000
0.000000 0.000000 0.000000
0.000000 0.000000 0.000000
0.000000 0.000000 0.000000
0.000000 0.000000 0.000000
0.000000 0.000000 0.000000
0.000000 0.000000 0.000000
0.000000 0.000000 0.000000
0.000000 0.000000 0.000000
0.000000 0.000000 0.000000
0.000000 0.000000 0.000000
0.000000 0.000000 0.000000
0.000000 0.000000 0.000000
0.000000 0.000000 0.000000
0.000000 0.000000 0.000000
0.000000 0.000000 0.000000
0.000000 0.000000 0.000000
0.000000 0.000000 0.000000
0.000000 0.000000 0.000000
0.000000 0.000000 0.000000
0.000000 0.000000 0.000000
0.000000 0.000000 0.000000
0.000000 0.000000 0.000000
0.000000 0.000000 0.000000
0.000000 0.000000 0.000000
0.000000 0.000000 0.000000
0.000000 0.000000 0.000000
0.000000 0.000000 0.000000
0.000000 0.000000 0.000000
0.000000 0.000000 0.000000
0.000000 0.000000 0.000000
0.000000 0.000000 0.000000
0.000000 0.000000 0.000000
0.000000 0.000000 0.000000
0.000000 0.000000 0.000000
0.000000 0.000000 0.000000
0.000000 0.000000 0.000000
0.000000 0.000000 0.000000
0.000000 0.000000 0.000000
0.000000 0.000000 0.000000
0.000000 0.000000 0.000000
0.000000 0.000000 0.000000
0.000000 0.000000 0.000000
0.000000 0.000000 0.000000
0.000000 0.000000 0.000000
0.000000 0.000000 0.000000
0.000000 0.000000 0.000000
0.000000 0.000000 0.000000
0.000000 0.000000 0.000000
0.000000 0.000000 0.000000
0.000000 0.000000 0.000000
0.000000 0.000000 0.000000
0.000000 0.000000 0.000000
0.000000 0.000000 0.000000
0.000000 0.000000 0.000000
0.000000 0.000000 0.000000
0.000000 0.000000 0.000000
0.000000 0.000000 0.000000
0.000000 0.000000 0.000000
0.000000 0.000000 0.000000
0.000000 0.000000 0.000000
0.000000 0.000000 0.000000
0.000000 0.000000 0.000000
0.000000 0.000000 0.000000
0.000000 0.000000 0.000000
0.000000 0.000000 0.000000
0.000000 0.000000 0.000000
0.000000 0.000000 0.000000
0.000000 0.000000 0.000000
0.000000 0.000000 0.000000
0.000000 0.000000 0.000000
0.000000 0.000000 0.000000
0.000000 0.000000 0.000000
0.000000 0.000000 0.000000
0.000000 0.000000 0.000000
0.000000 0.000000 0.000000
0.000000 0.000000 0.000000
0.000000 0.000000 0.000000
0.000000 0.000000 0.000000
0.000000 0.000000 0.000000
0.000000 0.000000 0.000000
0.000000 0.000000 0.000000
0.000000 0.000000 0.000000
0.000000 0.000000 0.000000
0.000000 0.000000 0.000000
0.000000 0.000000 0.000000
0.000000 0.000000 0.000000
0.000000 0.000000 0.000000
0.000000 0.000000 0.000000
0.000000 0.000000 0.000000
0.000000 0.000000 0.000000
0.000000 0.000000 0.000000
0.000000 0.000000 0.000000
0.000000 0.000000 0.000000
0.000000 0.000000 0.000000
0.000000 0.000000 0.000000
0.000000 0.000000 0.000000
0.000000 0.000000 0.000000
0.000000 0.000000 0.000000
0.000000 0.000000 0.000000
0.000000 0.000000 0.000000
0.000000 0.000000 0.000000
0.000000 0.000000 0.000000
0.000000 0.000000 0.000000
0.000000 0.000000 0.000000
0.000000 0.000000 0.000000
0.000000 0.000000 0.000000
0.000000 0.000000 0.000000
0.000000 0.000000 0.000000
0.000000 0.000000 0.000000
0.000000 0.000000 0.000000
0.000000 0.000000 0.000000
0.000000 0.000000 0.000000
0.000000 0.000000 0.000000
0.000000 0.000000 0.000000
0.000000 0.000000 0.000000
0.000000 0.000000 0.000000
0.000000 0.000000 0.000000
0.000000 0.000000 0.000000
0.000000 0.000000 0.000000
0.000000 0.000000 0.000000
0.000000 0.000000 0.000000
0.000000 0.000000 0.000000
0.000000 0.000000 0.000000
0.000000 0.000000 0.000000
0.000000 0.000000 0.000000
0.000000 0.000000 0.000000
0.000000 0.000000 0.000000
0.000000 0.000000 0.000000
0.000000 0.000000 0.000000
0.000000 0.000000 0.000000
0.000000 0.000000 0.000000
0.000000 0.000000 0.000000
0.000000 0.000000 0.000000
0.000000 0.000000 0.000000
0.000000 0.000000 0.000000
0.000000 0.000000 0.000000
0.000000 0.000000 0.000000
0.000000 0.000000 0.000000
0.000000 0.000000 0.000000
0.000000 0.000000 0.000000
0.000000 0.000000 0.000000
0.000000 0.000000 0.000000
0.000000 0.000000 0.000000
0.000000 0.000000 0.000000
0.000000 0.000000 0.000000
0.000000 0.000000 0.000000
0.000000 0.000000 0.000000
0.000000 0.000000 0.000000
0.000000 0.000000 0.000000
0.000000 0.000000 0.000000
0.000000 0.000000 0.000000
0.000000 0.000000 0.000000
0.000000 0.000000 0.000000
0.000000 0.000000 0.000000
0.000000 0.000000 0.000000
0.000000 0.000000 0.000000
0.000000 0.000000 0.000000
0.000000 0.000000 0.000000
0.000000 0.000000 0.000000
0.000000 0.000000 0.000000
0.000000 0.000000 0.000000
0.000000 0.000000 0.000000
0.000000 0.000000 0.000000
0.000000 0.000000 0.000000
0.000000 0.000000 0.000000
0.000000 0.000000 0.000000
0.000000 0.000000 0.000000
0.000000 0.000000 0.000000
0.000000 0.000000 0.000000
0.000000 0.000000 0.000000
0.000000 0.000000 0.000000
0.000000 0.000000 0.000000
0.000000 0.000000 0.000000
0.000000 0.000000 0.000000
0.000000 0.000000 0.000000
0.000000 0.000000 0.000000
0.000000 0.000000 0.000000
0.000000 0.000000 0.000000
0.000000 0.000000 0.000000
0.000000 0.000000 0.000000
0.000000 0.000000 0.000000
0.000000 0.000000 0.000000
0.000000 0.000000 0.000000
0.000000 0.000000 0.000000
0.000000 0.000000 0.000000
0.000000 0.000000 0.000000
0.000000 0.000000 0.000000
0.000000 0.000000 0.000000
0.000000 0.000000 0.000000
0.000000 0.000000 0.000000
0.000000 0.000000 0.000000
0.000000 0.000000 0.000000
0.000000 0.000000 0.000000
0.000000 0.000000 0.000000
0.000000 0.000000 0.000000
0.000000 0.000000 0.000000
0.000000 0.000000 0.000000
0.000000 0.000000 0.000000
0.000000 0.000000 0.000000
0.000000 0.000000 0.000000
0.000000 0.000000 0.000000
0.000000 0.000000 0.000000
0.000000 0.000000 0.000000
0.000000 0.000000 0.000000
0.000000 0.000000 0.000000
0.000000 0.000000 0.000000
0.000000 0.000000 0.000000
0.000000 0.000000 0.000000
0.000000 0.000000 0.000000
0.000000 0.000000 0.000000
0.000000 0.000000 0.000000
0.000000 0.000000 0.000000
0.000000 0.000000 0.000000
0.000000 0.000000 0.000000
0.000000 0.000000 0.000000
0.000000 0.000000 0.000000
0.000000 0.000000 0.000000
0.000000 0.000000 0.000000
0.000000 0.000000 0.000000
0.000000 0.000000 0.000000
0.000000 0.000000 0.000000
0.000000 0.000000 0.000000
0.000000 0.000000 0.000000
0.000000 0.000000 0.000000
0.000000 0.000000 0.000000
0.000000 0.000000 0.000000
0.000000 0.000000 0.000000
0.000000 0.000000 0.000000
0.000000 0.000000 0.000000
0.000000 0.000000 0.000000
0.000000 0.000000 0.000000
0.000000 0.000000 0.000000
0.000000 0.000000 0.000000
0.000000 0.000000 0.000000
0.000000 0.000000 0.000000
0.000000 0.000000 0.000000
0.000000 0.000000 0.000000
0.000000 0.000000 0.000000
0.000000 0.000000 0.000000
0.000000 0.000000 0.000000
0.000000 0.000000 0.000000
0.000000 0.000000 0.000000
0.000000 0.000000 0.000000
0.000000 0.000000 0.000000
0.000000 0.000000 0.000000
0.000000 0.000000 0.000000
0.000000 0.000000 0.000000
0.000000 0.000000 0.000000
0.000000 0.000000 0.000000
0.000000 0.000000 0.000000
0.000000 0.000000 0.000000
0.000000 0.000000 0.000000
0.000000 0.000000 0.000000
0.000000 0.000000 0.000000
0.000000 0.000000 0.000000
0.000000 0.000000 0.000000
0.000000 0.000000 0.000000
0.000000 0.000000 0.000000
0.000000 0.000000 0.000000
0.000000 0.000000 0.000000
0.000000 0.000000 0.000000
0.000000 0.000000 0.000000
0.000000 0.000000 0.000000
0.000000 0.000000 0.000000
0.000000 0.000000 0.000000
0.000000 0.000000 0.000000
0.000000 0.000000 0.000000
0.000000 0.000000 0.000000
0.000000 0.000000 0.000000
0.000000 0.000000 0.000000
0.000000 0.000000 0.000000
0.000000 0.000000 0.000000
0.000000 0.000000 0.000000
0.000000 0.000000 0.000000
0.000000 0.000000 0.000000
0.000000 0.000000 0.000000
0.000000 0.000000 0.000000
0.000000 0.000000 0.000000
0.000000 0.000000 0.000000
0.000000 0.000000 0.000000
0.000000 0.000000 0.000000
0.000000 0.000000 0.000000
0.000000 0.000000 0.000000
0.000000 0.000000 0.000000
0.000000 0.000000 0.000000
0.000000 0.000000 0.000000
0.000000 0.000000 0.000000
0.000000 0.000000 0.000000
0.000000 0.000000 0.000000
0.000000 0.000000 0.000000
0.000000 0.000000 0.000000
0.000000 0.000000 0.000000
0.000000 0.000000 0.000000
0.000000 0.000000 0.000000
0.000000 0.000000 0.000000
0.000000 0.000000 0.000000
0.000000 0.000000 0.000000
0.000000 0.000000 0.000000
0.000000 0.000000 0.000000
0.000000 0.000000 0.000000
0.000000 0.000000 0.000000
0.000000 0.000000 0.000000
0.000000 0.000000 0.000000
0.000000 0.000000 0.000000
0.000000 0.000000 0.000000
0.000000 0.000000 0.000000
0.000000 0.000000 0.000000
0.000000 0.000000 0.000000
0.000000 0.000000 0.000000
0.000000 0.000000 0.000000
0.000000 0.000000 0.000000
0.000000 0.000000 0.000000
0.000000 0.000000 0.000000
0.000000 0.000000 0.000000
0.000000 0.000000 0.000000
0.000000 0.000000 0.000000
0.000000 0.000000 0.000000
0.000000 0.000000 0.000000
0.000000 0.000000 0.000000
0.000000 0.000000 0.000000
0.000000 0.000000 0.000000
0.000000 0.000000 0.000000
0.000000 0.000000 0.000000
0.000000 0.000000 0.000000
0.000000 0.000000 0.000000
0.000000 0.000000 0.000000
0.000000 0.000000 0.000000
0.000000 0.000000 0.000000
0.000000 0.000000 0.000000
0.000000 0.000000 0.000000
0.000000 0.000000 0.000000
0.000000 0.000000 0.000000
0.000000 0.000000 0.000000
0.000000 0.000000 0.000000
0.000000 0.000000 0.000000
0.000000 0.000000 0.000000
0.000000 0.000000 0.000000
0.000000 0.000000 0.000000
0.000000 0.000000 0.000000
0.000000 0.000000 0.000000
0.000000 0.000000 0.000000
0.000000 0.000000 0.000000
0.000000 0.000000 0.000000
0.000000 0.000000 0.000000
0.000000 0.000000 0.000000
0.000000 0.000000 0.000000
0.000000 0.000000 0.000000
0.000000 0.000000 0.000000
0.000000 0.000000 0.000000
0.000000 0.000000 0.000000
0.000000 0.000000 0.000000
0.000000 0.000000 0.000000
0.000000 0.000000 0.000000
0.000000 0.000000 0.000000
0.000000 0.000000 0.000000
0.000000 0.000000 0.000000
0.000000 0.000000 0.000000
0.000000 0.000000 0.000000
0.000000 0.000000 0.000000
0.000000 0.000000 0.000000
0.000000 0.000000 0.000000
0.000000 0.000000 0.000000
0.000000 0.000000 0.000000
0.000000 0.000000 0.000000
0.000000 0.000000 0.000000
0.000000 0.000000 0.000000
0.000000 0.000000 0.000000
0.000000 0.000000 0.000000
0.000000 0.000000 0.000000
0.000000 0.000000 0.000000
0.000000 0.000000 0.000000
0.000000 0.000000 0.000000
0.000000 0.000000 0.000000
0.000000 0.000000 0.000000
0.000000 0.000000 0.000000
0.000000 0.000000 0.000000
0.000000 0.000000 0.000000
0.000000 0.000000 0.000000
0.000000 0.000000 0.000000
0.000000 0.000000 0.000000
0.000000 0.000000 0.000000
0.000000 0.000000 0.000000
0.000000 0.000000 0.000000
0.000000 0.000000 0.000000
0.000000 0.000000 0.000000
0.000000 0.000000 0.000000
0.000000 0.000000 0.000000
0.000000 0.000000 0.000000
0.000000 0.000000 0.000000
0.000000 0.000000 0.000000
0.000000 0.000000 0.000000
0.000000 0.000000 0.000000
0.000000 0.000000 0.000000
0.000000 0.000000 0.000000
0.000000 0.000000 0.000000
0.000000 0.000000 0.000000
0.000000 0.000000 0.000000
0.000000 0.000000 0.000000
0.000000 0.000000 0.000000
0.000000 0.000000 0.000000
0.000000 0.000000 0.000000
0.000000 0.000000 0.000000
0.000000 0.000000 0.000000
0.000000 0.000000 0.000000
0.000000 0.000000 0.000000
0.000000 0.000000 0.000000
0.000000 0.000000 0.000000
0.000000 0.000000 0.000000
0.000000 0.000000 0.000000
0.000000 0.000000 0.000000
0.000000 0.000000 0.000000
0.000000 0.000000 0.000000
0.000000 0.000000 0.000000
0.000000 0.000000 0.000000
0.000000 0.000000 0.000000
0.000000 0.000000 0.000000
0.000000 0.000000 0.000000
0.000000 0.000000 0.000000
0.000000 0.000000 0.000000
0.000000 0.000000 0.000000
0.000000 0.000000 0.000000
0.000000 0.000000 0.000000
0.000000 0.000000 0.000000
0.000000 0.000000 0.000000
0.000000 0.000000 0.000000
0.000000 0.000000 0.000000
0.000000 0.000000 0.000000
0.000000 0.000000 0.000000
0.000000 0.000000 0.000000
0.000000 0.000000 0.000000
0.000000 0.000000 0.000000
0.000000 0.000000 0.000000
0.000000 0.000000 0.000000
0.000000 0.000000 0.000000
0.000000 0.000000 0.000000
0.000000 0.000000 0.000000
0.000000 0.000000 0.000000
0.000000 0.000000 0.000000
0.000000 0.000000 0.000000
0.000000 0.000000 0.000000
0.000000 0.000000 0.000000
0.000000 0.000000 0.000000
0.000000 0.000000 0.000000
0.000000 0.000000 0.000000
0.000000 0.000000 0.000000
0.000000 0.000000 0.000000
0.000000 0.000000 0.000000
0.000000 0.000000 0.000000
0.000000 0.000000 0.000000
0.000000 0.000000 0.000000
0.000000 0.000000 0.000000
0.000000 0.000000 0.000000
0.000000 0.000000 0.000000
0.000000 0.000000 0.000000
0.000000 0.000000 0.000000
0.000000 0.000000 0.000000
0.000000 0.000000 0.000000
0.000000 0.000000 0.000000
0.000000 0.000000 0.000000
0.000000 0.000000 0.000000
0.000000 0.000000 0.000000
0.000000 0.000000 0.000000
0.000000 0.000000 0.000000
0.000000 0.000000 0.000000
0.000000 0.000000 0.000000
0.000000 0.000000 0.000000
0.000000 0.000000 0.000000
0.000000 0.000000 0.000000
0.000000 0.000000 0.000000
0.000000 0.000000 0.000000
0.000000 0.000000 0.000000
0.000000 0.000000 0.000000
0.000000 0.000000 0.000000
0.000000 0.000000 0.000000
0.000000 0.000000 0.000000
0.000000 0.000000 0.000000
0.000000 0.000000 0.000000
0.000000 0.000000 0.000000
0.000000 0.000000 0.000000
0.000000 0.000000 0.000000
0.000000 0.000000 0.000000
0.000000 0.000000 0.000000
0.000000 0.000000 0.000000
0.000000 0.000000 0.000000
0.000000 0.000000 0.000000
0.000000 0.000000 0.000000
0.000000 0.000000 0.000000
0.000000 0.000000 0.000000
0.000000 0.000000 0.000000
0.000000 0.000000 0.000000
0.000000 0.000000 0.000000
0.000000 0.000000 0.000000
0.000000 0.000000 0.000000
0.000000 0.000000 0.000000
0.000000 0.000000 0.000000
0.000000 0.000000 0.000000
0.000000 0.000000 0.000000
0.000000 0.000000 0.000000
0.000000 0.000000 0.000000
0.000000 0.000000 0.000000
0.000000 0.000000 0.000000
0.000000 0.000000 0.000000
0.000000 0.000000 0.000000
0.000000 0.000000 0.000000
0.000000 0.000000 0.000000
0.000000 0.000000 0.000000
0.000000 0.000000 0.000000
0.000000 0.000000 0.000000
0.000000 0.000000 0.000000
0.000000 0.000000 0.000000
0.000000 0.000000 0.000000
0.000000 0.000000 0.000000
0.000000 0.000000 0.000000
0.000000 0.000000 0.000000
0.000000 0.000000 0.000000
0.000000 0.000000 0.000000
0.000000 0.000000 0.000000
0.000000 0.000000 0.000000
0.000000 0.000000 0.000000
0.000000 0.000000 0.000000
0.000000 0.000000 0.000000
0.000000 0.000000 0.000000
0.000000 0.000000 0.000000
0.000000 0.000000 0.000000
0.000000 0.000000 0.000000
0.000000 0.000000 0.000000
0.000000 0.000000 0.000000
0.000000 0.000000 0.000000
0.000000 0.000000 0.000000
0.000000 0.000000 0.000000
0.000000 0.000000 0.000000
0.000000 0.000000 0.000000
0.000000 0.000000 0.000000
0.000000 0.000000 0.000000
0.000000 0.000000 0.000000
0.000000 0.000000 0.000000
0.000000 0.000000 0.000000
0.000000 0.000000 0.000000
0.000000 0.000000 0.000000
0.000000 0.000000 0.000000
0.000000 0.000000 0.000000
0.000000 0.000000 0.000000
0.000000 0.000000 0.000000
0.000000 0.000000 0.000000
0.000000 0.000000 0.000000
0.000000 0.000000 0.000000
0.000000 0.000000 0.000000
0.000000 0.000000 0.000000
0.000000 0.000000 0.000000
0.000000 0.000000 0.000000
0.000000 0.000000 0.000000
0.000000 0.000000 0.000000
0.000000 0.000000 0.000000
0.000000 0.000000 0.000000
0.000000 0.000000 0.000000
0.000000 0.000000 0.000000
0.000000 0.000000 0.000000
0.000000 0.000000 0.000000
0.000000 0.000000 0.000000
0.000000 0.000000 0.000000
0.000000 0.000000 0.000000
0.000000 0.000000 0.000000
0.000000 0.000000 0.000000
0.000000 0.000000 0.000000
0.000000 0.000000 0.000000
0.000000 0.000000 0.000000
0.000000 0.000000 0.000000
0.000000 0.000000 0.000000
0.000000 0.000000 0.000000
0.000000 0.000000 0.000000
0.000000 0.000000 0.000000
0.000000 0.000000 0.000000
0.000000 0.000000 0.000000
0.000000 0.000000 0.000000
0.000000 0.000000 0.000000
0.000000 0.000000 0.000000
0.000000 0.000000 0.000000
0.000000 0.000000 0.000000
0.000000 0.000000 0.000000
0.000000 0.000000 0.000000
0.000000 0.000000 0.000000
0.000000 0.000000 0.000000
0.000000 0.000000 0.000000
0.000000 0.000000 0.000000
0.000000 0.000000 0.000000
0.000000 0.000000 0.000000
0.000000 0.000000 0.000000
0.000000 0.000000 0.000000
0.000000 0.000000 0.000000
0.000000 0.000000 0.000000
0.000000 0.000000 0.000000
0.000000 0.000000 0.000000
0.000000 0.000000 0.000000
0.000000 0.000000 0.000000
0.000000 0.000000 0.000000
0.000000 0.000000 0.000000
0.000000 0.000000 0.000000
0.000000 0.000000 0.000000
0.000000 0.000000 0.000000
0.000000 0.000000 0.000000
0.000000 0.000000 0.000000
0.000000 0.000000 0.000000
0.000000 0.000000 0.000000
0.000000 0.000000 0.000000
0.000000 0.000000 0.000000
0.000000 0.000000 0.000000
0.000000 0.000000 0.000000
0.000000 0.000000 0.000000
0.000000 0.000000 0.000000
0.000000 0.000000 0.000000
0.000000 0.000000 0.000000
0.000000 0.000000 0.000000
0.000000 0.000000 0.000000
0.000000 0.000000 0.000000
0.000000 0.000000 0.000000
0.000000 0.000000 0.000000
0.000000 0.000000 0.000000
0.000000 0.000000 0.000000
0.000000 0.000000 0.000000
0.000000 0.000000 0.000000
0.000000 0.000000 0.000000
0.000000 0.000000 0.000000
0.000000 0.000000 0.000000
0.000000 0.000000 0.000000
0.000000 0.000000 0.000000
0.000000 0.000000 0.000000
0.000000 0.000000 0.000000
0.000000 0.000000 0.000000
0.000000 0.000000 0.000000
0.000000 0.000000 0.000000
0.000000 0.000000 0.000000
0.000000 0.000000 0.000000
0.000000 0.000000 0.000000
0.000000 0.000000 0.000000
0.000000 0.000000 0.000000
0.000000 0.000000 0.000000
0.000000 0.000000 0.000000
0.000000 0.000000 0.000000
0.000000 0.000000 0.000000
0.000000 0.000000 0.000000
0.000000 0.000000 0.000000
0.000000 0.000000 0.000000
0.000000 0.000000 0.000000
0.000000 0.000000 0.000000
0.000000 0.000000 0.000000
0.000000 0.000000 0.000000
0.000000 0.000000 0.000000
0.000000 0.000000 0.000000
0.000000 0.000000 0.000000
0.000000 0.000000 0.000000
0.000000 0.000000 0.000000
0.000000 0.000000 0.000000
0.000000 0.000000 0.000000
0.000000 0.000000 0.000000
0.000000 0.000000 0.000000
0.000000 0.000000 0.000000
0.000000 0.000000 0.000000
0.000000 0.000000 0.000000
0.000000 0.000000 0.000000
0.000000 0.000000 0.000000
0.000000 0.000000 0.000000
0.000000 0.000000 0.000000
0.000000 0.000000 0.000000
0.000000 0.000000 0.000000
0.000000 0.000000 0.000000
0.000000 0.000000 0.000000
0.000000 0.000000 0.000000
0.000000 0.000000 0.000000
0.000000 0.000000 0.000000
0.000000 0.000000 0.000000
0.000000 0.000000 0.000000
0.000000 0.000000 0.000000
0.000000 0.000000 0.000000
0.000000 0.000000 0.000000
0.000000 0.000000 0.000000
0.000000 0.000000 0.000000
0.000000 0.000000 0.000000
0.000000 0.000000 0.000000
0.000000 0.000000 0.000000
0.000000 0.000000 0.000000
0.000000 0.000000 0.000000
0.000000 0.000000 0.000000
0.000000 0.000000 0.000000
0.000000 0.000000 0.000000
0.000000 0.000000 0.000000
0.000000 0.000000 0.000000
0.000000 0.000000 0.000000
0.000000 0.000000 0.000000
0.000000 0.000000 0.000000
0.000000 0.000000 0.000000
0.000000 0.000000 0.000000
0.000000 0.000000 0.000000
0.000000 0.000000 0.000000
0.000000 0.000000 0.000000
0.000000 0.000000 0.000000
0.000000 0.000000 0.000000
0.000000 0.000000 0.000000
0.000000 0.000000 0.000000
0.000000 0.000000 0.000000
0.000000 0.000000 0.000000
0.000000 0.000000 0.000000
0.000000 0.000000 0.000000
0.000000 0.000000 0.000000
0.000000 0.000000 0.000000
0.000000 0.000000 0.000000
0.000000 0.000000 0.000000
0.000000 0.000000 0.000000
0.000000 0.000000 0.000000
0.000000 0.000000 0.000000
0.000000 0.000000 0.000000
0.000000 0.000000 0.000000
0.000000 0.000000 0.000000
0.000000 0.000000 0.000000
0.000000 0.000000 0.000000
0.000000 0.000000 0.000000
0.000000 0.000000 0.000000
0.000000 0.000000 0.000000
0.000000 0.000000 0.000000
0.000000 0.000000 0.000000
0.000000 0.000000 0.000000
0.000000 0.000000 0.000000
0.000000 0.000000 0.000000
0.000000 0.000000 0.000000
0.000000 0.000000 0.000000
0.000000 0.000000 0.000000
0.000000 0.000000 0.000000
0.000000 0.000000 0.000000
0.000000 0.000000 0.000000
0.000000 0.000000 0.000000
0.000000 0.000000 0.000000
0.000000 0.000000 0.000000
0.000000 0.000000 0.000000
0.000000 0.000000 0.000000
0.000000 0.000000 0.000000
0.000000 0.000000 0.000000
0.000000 0.000000 0.000000
0.000000 0.000000 0.000000
0.000000 0.000000 0.000000
0.000000 0.000000 0.000000


CELL_DATA 900
SCALARS mises float 1
LOOKUP_TABLE mises
4591.901822
1439.797928
4591.897479
4258.205712
300.987649
4258.202038
4432.991141
318.703423
4432.989226
4580.924179
446.302877
4580.924488
4658.854184
494.298855
4658.855101
4658.855874
494.300600
4658.856792
4580.929154
446.307970
4580.929467
4432.999014
318.710473
4432.997108
4258.215261
300.978793
4258.211604
4591.908782
1439.777863
4591.904472
5240.933477
778.781484
5240.932672
5262.903985
593.236643
5262.901350
5223.781119
934.265508
5223.778489
5271.280294
1093.423589
5271.275972
5303.667619
1156.263209
5303.664979
5303.668556
1156.265255
5303.665917
5271.283047
1093.429578
5271.278728
5223.785481
934.274860
5223.782857
5262.909450
593.245669
5262.906828
5240.938680
778.759860
5240.937894
5077.146217
523.678831
5077.143906
5136.814249
463.275412
5136.811993
5045.784039
672.347817
5045.781440
4986.335008
773.968269
4986.330340
4967.215170
814.061298
4967.209970
4967.215118
814.062991
4967.209918
4986.334816
773.973064
4986.330150
5045.783606
672.354768
5045.781011
5136.813532
463.281083
5136.811282
5077.145571
523.661333
5077.143265
5009.592544
201.980021
5009.593509
5009.955480
386.851427
5009.954900
4917.200435
553.538194
4917.196910
4833.564502
632.844535
4833.558602
4791.714715
665.536321
4791.706288
4791.713963
665.537696
4791.705536
4833.562229
632.848396
4833.556330
4917.196625
553.543819
4917.193101
5009.950329
386.857580
5009.949749
5009.587375
201.970816
5009.588335
4874.393968
131.994047
4874.393956
4854.542333
354.201701
4854.540841
4766.001551
468.918696
4765.996733
4685.730119
526.344031
4685.723076
4641.596163
551.264691
4641.587842
4641.595007
551.265620
4641.586686
4685.726645
526.346615
4685.719601
4765.995780
468.922415
4765.990959
4854.534560
354.206222
4854.533060
4874.385915
131.999763
4874.385888
4708.517129
242.761613
4708.515396
4683.531768
351.279708
4683.527813
4607.660543
417.131012
4607.656140
4539.007693
454.332104
4539.000385
4500.555054
471.734614
4500.547760
4500.553762
471.735030
4500.546467
4539.003811
454.333209
4538.996500
4607.654097
417.132422
4607.649686
4683.523058
351.281069
4683.519090
4708.507927
242.763317
4708.506172
4527.220631
336.485987
4527.220828
4503.925972
357.371629
4503.925648
4442.709236
385.488423
4442.703940
4387.697840
406.482218
4387.689714
4356.696785
417.475059
4356.687693
4356.695573
417.474997
4356.686479
4387.694196
406.481941
4387.686065
4442.703178
385.487645
4442.697873
4503.917768
357.369770
4503.917428
4527.211832
336.481956
4527.212002
4339.444970
404.084494
4339.449562
4319.608487
364.252284
4319.610149
4271.965613
365.360326
4271.961029
4229.416111
374.481247
4229.407618
4205.425651
380.619057
4205.413666
4205.424673
380.618639
4205.412686
4229.413171
374.479944
4229.404673
4271.960725
365.357916
4271.956131
4319.601867
364.247987
4319.603512
4339.437765
404.076067
4339.442327
4149.079623
452.398421
4149.096546
4132.735337
369.867230
4132.744817
4096.312024
351.956211
4096.307365
4063.988836
352.703680
4063.977177
4045.791339
355.378814
4045.773144
4045.790683
355.378205
4045.772486
4063.986864
352.701828
4063.975199
4096.308752
351.952930
4096.304083
4132.730923
369.861592
4132.740385
4149.074721
452.387417
4149.091614
3957.808416
487.011332
3957.841110
3944.393708
374.076943
3944.411306
3916.709304
342.734568
3916.706668
3892.288764
337.619780
3892.270146
3878.574426
337.879395
3878.546290
3878.574110
337.878760
3878.545971
3892.287815
337.617854
3892.269192
3916.707743
342.731174
3916.705098
3944.391635
374.071073
3944.409216
3957.806003
486.999612
3957.838669
3766.290317
511.869363
3766.340962
3755.136708
377.156477
3755.162878
3734.029317
336.271689
3734.025244
3715.503018
327.033480
3715.475621
3705.127211
325.607388
3705.089306
3705.127190
325.606854
3705.089285
3715.502962
327.031858
3715.475562
3734.029250
336.268789
3734.025169
3755.136678
377.151276
3755.162834
3766.290110
511.858497
3766.340733
3574.777569
529.735141
3574.851749
3565.274852
379.395460
3565.309685
3549.008565
331.703699
3549.005210
3534.783850
319.544583
3534.752857
3526.841499
316.931785
3526.793349
3526.841689
316.931430
3526.793538
3534.784427
319.543486
3534.753433
3549.009554
331.701651
3549.006195
3565.276265
379.391483
3565.311089
3574.778954
529.726154
3574.853118
3383.353286
542.550938
3383.451965
3374.996625
381.016552
3375.039811
3362.246615
328.463891
3362.242031
3351.117220
314.224541
3351.080863
3344.919529
310.770444
3344.866780
3344.919825
310.770281
3344.867075
3351.118115
314.224012
3351.081758
3362.248133
328.462771
3362.243547
3374.998757
381.013946
3375.041939
3383.355504
542.544198
3383.454174
3192.048493
551.700987
3192.170359
3184.439774
382.184944
3184.485488
3174.215216
326.170864
3174.208467
3165.285246
310.450404
3165.254265
3160.322297
306.397305
3160.284818
3160.322604
306.397296
3160.285126
3165.286174
310.450327
3165.255195
3174.216784
326.170492
3174.210037
3184.441966
382.183482
3184.487682
3192.050840
551.696238
3192.172706
3000.881960
558.168512
3001.018519
2993.708557
383.019280
2993.747130
2985.277133
324.561939
2985.274187
2977.893759
307.795802
2977.890975
2973.800004
303.320627
2973.805700
2973.800260
303.320694
2973.805958
2977.894533
307.795953
2977.891754
2985.278435
324.561959
2985.275496
2993.710376
383.018477
2993.748957
3000.883963
558.165054
3001.020532
2809.869901
562.638371
2809.999423
2802.885920
383.600937
2802.900608
2795.718174
323.459073
2795.726090
2789.405921
305.972765
2789.469919
2785.910686
301.207344
2786.023772
2785.910876
301.207397
2786.023965
2789.406494
305.972881
2789.470499
2795.719132
323.459065
2795.727059
2802.887254
383.600207
2802.901957
2809.871419
562.635334
2810.000959
2619.049930
565.578105
2619.121873
2612.052327
383.984521
2612.014059
2605.757550
322.734414
2605.797370
2600.173830
304.773489
2600.374831
2597.085512
299.816115
2597.406054
2597.085669
299.816076
2597.406215
2600.174301
304.773343
2600.375310
2605.758327
322.734018
2605.798162
2612.053394
383.983364
2612.015148
2619.051165
565.574743
2619.123135
2428.476442
567.307271
2428.392581
2421.288916
384.209240
2421.140315
2415.577466
322.305224
2415.676177
2410.472428
304.063924
2410.920485
2407.651573
298.993147
2408.339859
2407.651767
298.992973
2408.340058
2410.473008
304.063388
2410.921076
2415.578415
322.304239
2415.677145
2421.290192
384.207388
2421.141617
2428.477872
567.303222
2428.394046
2238.228523
568.013231
2237.814842
2230.678370
384.301056
2230.326650
2225.338647
322.127846
2225.531476
2220.529274
303.771780
2221.387041
2217.873480
298.654442
2219.169488
2217.873800
298.654133
2219.169813
2220.530230
303.770861
2221.388010
2225.340209
322.126293
2225.533061
2230.680449
384.298570
2230.328759
2238.230755
568.008666
2237.817117
2048.418898
567.764829
2047.376744
2040.319393
384.268867
2039.609358
2035.184090
322.185778
2035.521049
2030.538813
303.871490
2032.046027
2027.982171
298.772994
2030.230021
2027.982699
298.772602
2030.230554
2030.540392
303.870337
2032.047619
2035.186675
322.183904
2035.523657
2040.322820
384.266138
2039.612816
2048.422501
567.760460
2047.380393
1859.192318
566.541208
1857.071611
1850.322324
384.104949
1849.025744
1845.260008
322.483969
1845.802240
1840.694003
304.377303
1843.163982
1838.195659
299.365356
1841.856094
1838.196448
299.364966
1841.856888
1840.696362
304.376171
1843.166353
1845.263870
322.482196
1845.806128
1850.327431
384.102618
1849.030887
1859.197647
566.538147
1857.076995
1670.762663
564.209012
1666.888993
1660.826636
383.789663
1658.621744
1655.735206
323.055648
1656.562133
1651.218185
305.346636
1655.053045
1648.780321
300.500204
1654.423186
1648.781380
300.499920
1654.424246
1651.221349
305.345829
1655.056209
1655.740377
323.054470
1656.567319
1660.833451
383.788470
1658.628581
1670.769762
564.208506
1666.896144
1483.382460
560.512098
1476.852401
1472.000885
383.286400
1468.475189
1466.811146
323.963789
1468.030667
1462.407027
306.892419
1468.061689
1460.113309
302.316357
1468.335256
1460.114595
302.316274
1468.336542
1462.410866
306.892212
1468.065517
1466.817396
323.963649
1468.036925
1472.009073
383.286988
1468.483397
1483.391001
560.515203
1476.861020
1297.413430
555.045237
1287.054145
1284.050509
382.527306
1278.760214
1278.745031
325.306149
1280.552039
1274.708732
309.196678
1282.606029
1272.806742
305.031503
1284.003734
1272.808180
305.031679
1284.005157
1274.713014
309.197239
1282.610247
1278.751952
325.307310
1280.558909
1284.059488
382.530030
1278.769151
1297.422831
555.052485
1287.063607
1113.449537
547.191773
1097.634591
1097.270021
381.409916
1089.781645
1091.945715
327.225525
1094.607406
1088.959228
312.532505
1099.072784
1088.035788
308.988596
1101.667253
1088.037270
308.989034
1101.668721
1088.963630
312.533839
1099.077100
1091.952745
327.227972
1094.614379
1097.279006
381.414695
1089.790590
1113.458986
547.202918
1097.644216
932.647793
536.081034
908.725114
912.088512
379.780494
902.257816
907.285193
329.888801
910.869300
906.898862
317.274666
917.637580
908.049417
314.686424
921.132074
908.050864
314.687059
921.133496
906.903151
317.276578
917.641689
907.291917
329.892196
910.875824
912.096923
379.786740
902.265964
932.656696
536.094921
908.734127
758.326511
520.878411
719.116280
730.396632
377.574544
716.478857
728.180650
333.697715
728.894406
733.147926
324.233443
736.778341
737.779793
323.149100
740.548552
737.781115
323.149801
740.549945
733.151830
324.235547
736.782259
728.186578
333.701410
728.900424
730.403824
377.581202
716.485969
758.334178
520.893005
719.124473
593.924629
501.723590
531.568553
555.662213
374.829079
538.518543
560.934897
339.966542
551.888867
574.131110
335.537204
559.361148
582.995393
336.558787
563.605584
582.996604
336.559359
563.606960
574.134697
335.538942
559.364879
560.940138
339.969649
551.894303
555.668429
374.834806
538.524132
593.931455
501.736276
531.575102
417.178900
515.694705
328.226551
379.656742
409.623936
345.875727
399.740948
390.320984
358.123334
421.921567
392.110549
370.258055
434.196500
394.711802
378.240146
434.197487
394.712039
378.241600
421.924479
392.111326
370.261948
399.744779
390.322508
358.129126
379.660904
409.627394
345.881265
417.183154
515.702945
328.232368
187.891343
445.155075
611.359078
203.298997
393.780052
598.171211
246.694561
385.058772
593.206087
277.038102
383.562079
596.023775
291.971787
383.756760
599.104048
291.972358
383.756535
599.104319
277.039841
383.561483
596.024415
246.696118
385.057815
593.206939
203.300822
393.779817
598.172255
187.892443
445.156624
611.360697
